C  O  Ca
 1.0000000000000000
     9.8311652891059822    0.0000000000000000    0.0000000000000000
    -4.9155826445529902    8.5140388891695657    0.0000000000000000
    -0.0000000000000009   -0.0000000000000008   16.6398814829400763
 C   O   Ca 
  24  72  24
Cartesian
 -0.0000000245779445  2.8380129772465992  6.9332840066912897
  4.9155826199750479  2.8380129772465992  6.9332840066912897
 -2.4577913468544392  7.0950324218313812  6.9332840066912897
  2.4577912976985532  7.0950324218313812  6.9332840066912897
  2.4577912976985488  1.4190064957183308  9.7065975871813031
  7.3733739422515399  1.4190064957183308  9.7065975871813031
 -0.0000000245779458  5.6760259403031128  9.7065975871813031
  4.9155826199750452  5.6760259403031128  9.7065975871813031
  9.8311652645280354  0.0000000141900629 12.4799111676713146
  4.9155826199750452  0.0000000141900629 12.4799111676713146
  7.3733739422515407  4.2570194587748453 12.4799111676713146
  2.4577912976985501  4.2570194587748453 12.4799111676713146
 -0.0000000245779441  2.8380129772465992 15.2532247481613314
  4.9155826199750470  2.8380129772465992 15.2532247481613314
 -2.4577913468544392  7.0950324218313812 15.2532247481613314
  2.4577912976985514  7.0950324218313812 15.2532247481613314
  2.4577912976985496  1.4190064957183308  1.3866568457112649
  7.3733739422515390  1.4190064957183308  1.3866568457112649
 -0.0000000245779459  5.6760259403031146  1.3866568457112649
  4.9155826199750443  5.6760259403031146  1.3866568457112649
  9.8311652645280372  0.0000000141900629  4.1599704262012782
  4.9155826199750461  0.0000000141900629  4.1599704262012782
  7.3733739422515416  4.2570194587748462  4.1599704262012782
  2.4577912976985505  4.2570194587748462  4.1599704262012782
  0.6326957193234325  3.9511946594920535  6.9332840066912897
  5.5582783638764246  3.9511946594920535  6.9332840066912897
 -1.8150956029530627  8.2082141040768377  6.9332840066912897
  3.1004870415999286  8.2082141040768377  6.9332840066912897
 -1.2853915123806949  2.8380129772465996  6.9332840066912897
  3.6301911321722966  2.8380129772465996  6.9332840066912897
 -3.7431828346571900  7.0950324218313821  6.9332840066912897
  1.1723998098958026  7.0950324218313821  6.9332840066912897
  1.8150955537971833  2.5321881779637923  9.7065975871813031
  6.7306781983501747  2.5321881779637923  9.7065975871813031
 -0.6426957684793118  6.7892076225485738  9.7065975871813031
  4.2728868760736800  6.7892076225485738  9.7065975871813031
  1.8150955537971833  0.3058248134728680  9.7065975871813031
  6.7306781983501738  0.3058248134728680  9.7065975871813031
 -0.6426957684793115  4.5628442580576491  9.7065975871813031
  4.2728868760736791  4.5628442580576491  9.7065975871813031
  3.7431827855013124  1.4190064957183308  9.7065975871813031
  8.6587654300543058  1.4190064957183308  9.7065975871813031
  1.2853914632248180  5.6760259403031128  9.7065975871813031
  6.2009741077778076  5.6760259403031128  9.7065975871813031
  0.6426957193234363  1.7248312950011280  6.9332840066912897
  5.5582783638764264  1.7248312950011280  6.9332840066912897
 -1.8150956029530592  5.9818507395859113  6.9332840066912897
  3.1004870415999313  5.9818507395859113  6.9332840066912897
  0.6426957193234325  1.1131816964355186 12.4799111676713146
  5.5582783638764237  1.1131816964355186 12.4799111676713146
 -1.8150956029530627  5.3702011410203010 12.4799111676713146
  3.1004870415999286  5.3702011410203010 12.4799111676713146
  3.6301911321723122  0.0000000141900633 12.4799111676713146
  8.5457737767253050  0.0000000141900633 12.4799111676713146
  1.1723998098958177  4.2570194587748462 12.4799111676713146
  6.0879824544488077  4.2570194587748462 12.4799111676713146
 -0.6426957684793235  3.9511946594920540 15.2532247481613314
  4.2728868760736667  3.9511946594920540 15.2532247481613314
 -3.1004870907558182  8.2082141040768377 15.2532247481613314
  1.8150955537971725  8.2082141040768377 15.2532247481613314
 -0.6426957684793204  1.7248312950011282 15.2532247481613314
  4.2728868760736702  1.7248312950011282 15.2532247481613314
 -3.1004870907558160  5.9818507395859104 15.2532247481613314
  1.8150955537971745  5.9818507395859104 15.2532247481613314
  1.2853914632248176  2.8380129772465987 15.2532247481613314
  6.2009741077778093  2.8380129772465987 15.2532247481613314
 -1.1723998590516775  7.0950324218313803 15.2532247481613314
  3.7431827855013151  7.0950324218313803 15.2532247481613314
  8.0160696861529175  3.1438377765294052 12.4799111676713146
  3.1004870415999233  3.1438377765294052 12.4799111676713146
  5.5582783638764193  7.4008572211141885 12.4799111676713146
  0.6426957193234282  7.4008572211141885 12.4799111676713146
  3.1004870415999384  2.5321881779637923  1.3866568457112649
  8.0160696861529299  2.5321881779637923  1.3866568457112649
  0.6426957193234429  6.7892076225485756  1.3866568457112649
  5.5582783638764344  6.7892076225485756  1.3866568457112649
  1.1723998098958008  1.4190064957183310  1.3866568457112649
  6.0879824544487917  1.4190064957183310  1.3866568457112649
 -1.2853915123806938  5.6760259403031146  1.3866568457112649
  3.6301911321722966  5.6760259403031146  1.3866568457112649
  9.1884695206266560  1.1131816964355190  4.1599704262012782
  4.2728868760736685  1.1131816964355190  4.1599704262012782
  6.7306781983501631  5.3702011410203019  4.1599704262012782
  1.8150955537971720  5.3702011410203019  4.1599704262012782
  1.8150955537971913  3.1438377765294052  4.1599704262012782
  6.7306781983501818  3.1438377765294052  4.1599704262012782
 -0.6426957684793039  7.4008572211141885  4.1599704262012782
  4.2728868760736862  7.4008572211141885  4.1599704262012782
  1.2853914632248109  0.0000000141900627  4.1599704262012782
  6.2009741077778022  0.0000000141900627  4.1599704262012782
 -1.1723998590516842  4.2570194587748462  4.1599704262012782
  3.7431827855013067  4.2570194587748462  4.1599704262012782
  3.1004870415999379  0.3058248134728680  1.3866568457112649
  8.0160696861529299  0.3058248134728680  1.3866568457112649
  0.6426957193234429  4.5628442580576509  1.3866568457112649
  5.5582783638764353  4.5628442580576509  1.3866568457112649
  9.8311652645280354  0.0000000141900633  8.3199407969362973
  4.9155826199750452  0.0000000141900633  8.3199407969362973
  7.3733739422515399  4.2570194587748471  8.3199407969362973
  2.4577912976985501  4.2570194587748471  8.3199407969362973
  2.4577912976985496  1.4190064957183308  5.5466272164462849
  7.3733739422515425  1.4190064957183308  5.5466272164462849
 -0.0000000245779443  5.6760259403031146  5.5466272164462849
  4.9155826199750479  5.6760259403031146  5.5466272164462849
  2.4577912976985496  1.4190064957183315 13.8665679579163221
  7.3733739422515416  1.4190064957183315 13.8665679579163221
 -0.0000000245779453  5.6760259403031146 13.8665679579163221
  4.9155826199750461  5.6760259403031146 13.8665679579163221
 -0.0000000245779445  2.8380129772465996 11.0932543774263124
  4.9155826199750461  2.8380129772465996 11.0932543774263124
 -2.4577913468544392  7.0950324218313812 11.0932543774263124
  2.4577912976985519  7.0950324218313812 11.0932543774263124
 -0.0000000245779440  2.8380129772465996  2.7733136359562724
  4.9155826199750470  2.8380129772465996  2.7733136359562724
 -2.4577913468544383  7.0950324218313812  2.7733136359562724
  2.4577912976985528  7.0950324218313812  2.7733136359562724
  9.8311652645280372  0.0000000141900631  0.0000000554662591
  4.9155826199750452  0.0000000141900631  0.0000000554662591
  7.3733739422515416  4.2570194587748462  0.0000000554662591
  2.4577912976985510  4.2570194587748462  0.0000000554662591
