Si
 1.0000000000000000
    10.9299619245095148    0.0000000000000000    0.0000000000000000
     0.0000000000000000   10.9299619245095148    0.0000000000000000
     0.0000000000000000    0.0000000000000000   10.9299619245095148
 Si 
  64
Cartesian
  1.3762452441862056  4.0987357225654666  1.3662452441862056
  6.8312262064409630  4.0987357225654666  1.3662452441862056
  1.3662452441862056  9.5637166848202249  1.3662452441862056
  6.8312262064409630  9.5637166848202249  1.3662452441862056
  1.3662452441862056  4.0987357225654666  6.8312262064409630
  6.8312262064409630  4.0987357225654666  6.8312262064409630
  1.3662452441862056  9.5637166848202249  6.8312262064409630
  6.8312262064409630  9.5637166848202249  6.8312262064409630
  0.0000000036225163  0.0000000008743988  2.7324904847498948
  5.4649809658772730  0.0000000008743988  2.7324904847498948
  0.0000000036225163  5.4649809631291557  2.7324904847498948
  5.4649809658772730  5.4649809631291557  2.7324904847498948
  0.0000000036225163  0.0000000008743988  8.1974714470046521
  5.4649809658772730  0.0000000008743988  8.1974714470046521
  0.0000000036225163  5.4649809631291557  8.1974714470046521
  5.4649809658772730  5.4649809631291557  8.1974714470046521
  1.3662452441862056  1.3662452414380879  4.0987357253135848
  6.8312262064409630  1.3662452414380879  4.0987357253135848
  1.3662452441862056  6.8312262036928448  4.0987357253135848
  6.8312262064409630  6.8312262036928448  4.0987357253135848
  1.3662452441862056  1.3662452414380879  9.5637166875683430
  6.8312262064409630  1.3662452414380879  9.5637166875683430
  1.3662452441862056  6.8312262036928448  9.5637166875683430
  6.8312262064409630  6.8312262036928448  9.5637166875683430
  0.0000000036225163  2.7324904820017775  0.0000000036225161
  5.4649809658772730  2.7324904820017775  0.0000000036225161
  0.0000000036225163  8.1974714442565357  0.0000000036225161
  5.4649809658772730  8.1974714442565357  0.0000000036225161
  0.0000000036225163  2.7324904820017775  5.4649809658772730
  5.4649809658772730  2.7324904820017775  5.4649809658772730
  0.0000000036225163  8.1974714442565357  5.4649809658772730
  5.4649809658772730  8.1974714442565357  5.4649809658772730
  4.0987357253135848  4.0987357225654666  4.0987357253135848
  9.5637166875683430  4.0987357225654666  4.0987357253135848
  4.0987357253135848  9.5637166848202249  4.0987357253135848
  9.5637166875683430  9.5637166848202249  4.0987357253135848
  4.0987357253135848  4.0987357225654666  9.5637166875683430
  9.5637166875683430  4.0987357225654666  9.5637166875683430
  4.0987357253135848  9.5637166848202249  9.5637166875683430
  9.5637166875683430  9.5637166848202249  9.5637166875683430
  2.7324904847498948  0.0000000008743988  0.0000000036225161
  8.1974714470046521  0.0000000008743988  0.0000000036225161
  2.7324904847498948  5.4649809631291557  0.0000000036225161
  8.1974714470046521  5.4649809631291557  0.0000000036225161
  2.7324904847498948  0.0000000008743988  5.4649809658772730
  8.1974714470046521  0.0000000008743988  5.4649809658772730
  2.7324904847498948  5.4649809631291557  5.4649809658772730
  8.1974714470046521  5.4649809631291557  5.4649809658772730
  4.0987357253135848  1.3662452414380879  1.3662452441862056
  9.5637166875683430  1.3662452414380879  1.3662452441862056
  4.0987357253135848  6.8312262036928448  1.3662452441862056
  9.5637166875683430  6.8312262036928448  1.3662452441862056
  4.0987357253135848  1.3662452414380879  6.8312262064409630
  9.5637166875683430  1.3662452414380879  6.8312262064409630
  4.0987357253135848  6.8312262036928448  6.8312262064409630
  9.5637166875683430  6.8312262036928448  6.8312262064409630
  2.7324904847498948  2.7324904820017775  2.7324904847498948
  8.1974714470046521  2.7324904820017775  2.7324904847498948
  2.7324904847498948  8.1974714442565357  2.7324904847498948
  8.1974714470046521  8.1974714442565357  2.7324904847498948
  2.7324904847498948  2.7324904820017775  8.1974714470046521
  8.1974714470046521  2.7324904820017775  8.1974714470046521
  2.7324904847498948  8.1974714442565357  8.1974714470046521
  8.1974714470046521  8.1974714442565357  8.1974714470046521
