C  O  Ca
 1.0000000000000000
     5.1663776774383487   -0.0000000000000000   -0.0000000000000000
    -2.5831888387191744    4.4742143142064563    0.0000000000000000
    -0.0000000000000004    0.0000000000000002   17.4888550279880377
 C   O   Ca 
   6  18   6
Selective dynamics
Cartesian
 -0.0000000258319228  2.9828095577183498  7.2870229866245193   T   T   T
  2.5831888128872520  1.4914047863161974 10.2018321579558595   T   T   T
 -0.0000000258319228  0.0000000149140451 13.1166413292871979   T   T   T
 -0.0000000258319228  2.9828095577183498 16.0314505006185399   T   T   T
  2.5831888128872520  1.4914047863161974  1.4574046439618407   T   T   T
 -0.0000000258319228  0.0000000149140451  4.3722138152931809   T   T   T
  0.6489712103165887  4.1068607113783528  7.2870229866245193   T   T   T
 -1.2979424981289447  2.9828095577183502  7.2870229866245193   T   T   T
  1.9342175767387411  2.6154559399761990 10.2018321579558595   T   T   T
  1.9342175767387411  0.3673536326561964 10.2018321579558595   T   T   T
  3.8811312851842743  1.4914047863161972 10.2018321579558595   T   T   T
  0.6489712103165882  1.8587584040583500  7.2870229866245193   T   T   T
  0.6489712103165887  1.1240511685740446 13.1166413292871979   T   T   T
  3.8684351793094054  0.0000000149140456 13.1166413292871979   T   T   T
 -0.6489712619804339  4.1068607113783528 16.0314505006185399   T   T   T
 -0.6489712619804339  1.8587584040583498 16.0314505006185399   T   T   T
  1.2979424464650997  2.9828095577183493 16.0314505006185399   T   T   T
 -1.9342176284025867  3.3501631754605006 13.1166413292871979   T   T   T
  3.2321600490357616  2.6154559399761990  1.4574046439618407   T   T   T
  1.2852463405902301  1.4914047863161979  1.4574046439618407   T   T   T
 -0.6489712619804339  1.1240511685740449  4.3722138152931809   T   T   T
  1.9342175767387411  3.3501631754605006  4.3722138152931809   T   T   T
  1.2979424464650997  0.0000000149140449  4.3722138152931809   T   T   T
  3.2321600490357612  0.3673536326561968  1.4574046439618407   T   T   T
 -0.0000000258319228  0.0000000149140451  8.7444275722901885   T   T   T
  2.5831888128872520  1.4914047863161977  5.8296184009588501   T   T   T
  2.5831888128872520  1.4914047863161977 14.5740459149528672   T   T   T
 -0.0000000258319228  2.9828095577183502 11.6592367436215287   T   T   T
 -0.0000000258319228  2.9828095577183502  2.9148092296275099   T   T   T
 -0.0000000258319228  0.0000000149140453  0.0000000582961714   T   T   T
