C  O  Ca
 1.0000000000000000
     4.7652895055251570   -0.0000000000000000    0.0000000000000000
    -2.3826447527625776    4.1268617681721702   -0.0000000000000000
    -0.0000000000000008    0.0000000000000001   16.1736100127231843
 C   O   Ca 
   6  18   6
Selective dynamics
Cartesian
 -0.0000000238264815  2.7512411925376723  6.7390042258800227   T   T   T
  2.3826447289360866  1.3756206031469485  9.4346058946672198   T   T   T
 -0.0000000238264914  0.0000000137562246 12.1302075634544160   T   T   T
 -0.0000000238264815  2.7512411925376723 14.8258092322416140   T   T   T
  2.3826447289360866  1.3756206031469485  1.3478008883056294   T   T   T
 -0.0000000238264914  0.0000000137562246  4.0434025570928265   T   T   T
  0.6375854761328328  3.8555716726364007  6.7390042258800227   T   T   T
 -1.2751710237451050  2.7512411925376723  6.7390042258800227   T   T   T
  1.7450592289767779  2.4799510832456773  9.4346058946672198   T   T   T
  1.7450592289767781  0.2712901230482239  9.4346058946672198   T   T   T
  3.6578157288547040  1.3756206031469482  9.4346058946672198   T   T   T
  0.6375854761328151  1.6469107124389477  6.7390042258800227   T   T   T
  0.6375854761328151  1.1043304938549485 12.1302075634544160   T   T   T
  3.4901184817800477  0.0000000137562246 12.1302075634544160   T   T   T
 -0.6375855237857809  3.8555716726364011 14.8258092322416140   T   T   T
 -0.6375855237857984  1.6469107124389470 14.8258092322416140   T   T   T
  1.2751709760921224  2.7512411925376723 14.8258092322416140   T   T   T
 -1.7450592766297615  3.0225313018296669 12.1302075634544160   T   T   T
  3.0202302288953966  2.4799510832456768  1.3478008883056294   T   T   T
  1.1074737290174734  1.3756206031469485  1.3478008883056294   T   T   T
 -0.6375855237857985  1.1043304938549490  4.0434025570928265   T   T   T
  1.7450592289767779  3.0225313018296660  4.0434025570928265   T   T   T
  1.2751709760921226  0.0000000137562244  4.0434025570928265   T   T   T
  3.0202302288953962  0.2712901230482246  1.3478008883056294   T   T   T
 -0.0000000238264914  0.0000000137562246  8.0868050602736208   T   T   T
  2.3826447289360866  1.3756206031469487  5.3912033914864246   T   T   T
  2.3826447289360866  1.3756206031469485 13.4780083978480150   T   T   T
 -0.0000000238264815  2.7512411925376723 10.7824067290608170   T   T   T
 -0.0000000238264815  2.7512411925376723  2.6956017226992275   T   T   T
 -0.0000000238264914  0.0000000137562248  0.0000000539120313   T   T   T
