C  O  Ca
 1.0000000000000000
     5.2435752221532530   -0.0000000000000000    0.0000000000000000
    -2.6217876110766265    4.5410693490393479   -0.0000000000000000
    -0.0000000000000004    0.0000000000000006   17.7800894908421583
 C   O   Ca 
   6  18   6
Selective dynamics
Cartesian
 -0.0000000262179092  3.0273795811631552  7.4083706804511875   T   T   T
  2.6217875848587173  1.5136897981500310 10.3717189289248815   T   T   T
 -0.0000000262179092  0.0000000151369068 13.3350671773985745   T   T   T
 -0.0000000262179092  3.0273795811631552 16.2984154258722675   T   T   T
  2.6217875848587173  1.5136897981500310  1.4816741835038014   T   T   T
 -0.0000000262179092  0.0000000151369068  4.4450224319774954   T   T   T
  0.6512123474128488  4.1553124988091366  7.4083706804511875   T   T   T
 -1.3024247734794254  3.0273795811631556  7.4083706804511875   T   T   T
  1.9705752112279595  2.6416227157960219 10.3717189289248815   T   T   T
  1.9705752112279595  0.3857568805040249 10.3717189289248815   T   T   T
  3.9242123321202320  1.5136897981500308 10.3717189289248815   T   T   T
  0.6512123474128488  1.8994466635171465  7.4083706804511875   T   T   T
  0.6512123474128487  1.1279329327829066 13.3350671773985745   T   T   T
  3.9411504486738287  0.0000000151369073 13.3350671773985745   T   T   T
 -0.6512123998486676  4.1553124988091374 16.2984154258722675   T   T   T
 -0.6512123998486676  1.8994466635171465 16.2984154258722675   T   T   T
  1.3024247210436066  3.0273795811631548 16.2984154258722675   T   T   T
 -1.9705752636637783  3.4131364465302725 13.3350671773985745   T   T   T
  3.2729999584894762  2.6416227157960215  1.4816741835038014   T   T   T
  1.3193628375972011  1.5136897981500315  1.4816741835038014   T   T   T
 -0.6512123998486676  1.1279329327829073  4.4450224319774954   T   T   T
  1.9705752112279595  3.4131364465302725  4.4450224319774954   T   T   T
  1.3024247210436066  0.0000000151369066  4.4450224319774954   T   T   T
  3.2729999584894762  0.3857568805040251  1.4816741835038014   T   T   T
 -0.0000000262179092  0.0000000151369068  8.8900448046880349   T   T   T
  2.6217875848587173  1.5136897981500312  5.9266965562143410   T   T   T
  2.6217875848587173  1.5136897981500312 14.8167413016354210   T   T   T
 -0.0000000262179092  3.0273795811631556 11.8533930531617280   T   T   T
 -0.0000000262179092  3.0273795811631556  2.9633483077406488   T   T   T
 -0.0000000262179092  0.0000000151369071  0.0000000592669549   T   T   T
