Si
 1.0000000000000000
     5.4687280654999997    0.0000000000000000    0.0000000000000000
     0.0000000000000000    5.4687280654999997    0.0000000000000000
     0.0000000000000000    0.0000000000000000    5.4687280654999997
 Si 
   8
Cartesian
  1.3671820200000000  4.1015460499999996  1.3671820200000000
  0.0000000000000000  0.0000000000000000  2.7343640300000001
  1.3671820200000000  1.3671820200000000  4.1015460499999996
  0.0000000000000000  2.7343640300000001  0.0000000000000000
  4.1015460499999996  4.1015460499999996  4.1015460499999996
  2.7343640300000001  0.0000000000000000  0.0000000000000000
  4.1015460499999996  1.3671820200000000  1.3671820200000000
  2.7343640300000001  2.7343640300000001  2.7343640300000001
Cartesian
  0.0000000000000000  0.0000000000000000  0.0000000000000000
  0.0000000000000000  0.0000000000000000  0.0000000000000000
  0.0000000000000000  0.0000000000000000  0.0000000000000000
  0.0000000000000000  0.0000000000000000  0.0000000000000000
  0.0000000000000000  0.0000000000000000  0.0000000000000000
  0.0000000000000000  0.0000000000000000  0.0000000000000000
  0.0000000000000000  0.0000000000000000  0.0000000000000000
  0.0000000000000000  0.0000000000000000  0.0000000000000000
