C  O  Ca
 1.0000000000000000
     4.7651056248217794   -0.0000000000000000    0.0000000000000000
    -2.3825528124108897    4.1267025228117822   -0.0000000000000000
     0.0000000000000009    0.0000000000000005   16.1304973559112987
 C   O   Ca 
   6  18   6
Selective dynamics
Cartesian
 -0.0000000238255597  2.7511350289635272  6.7210406187313536   T   T   T
  2.3825527885853304  1.3755675213596001  9.4094568447165692   T   T   T
 -0.0000000238255597  0.0000000137556730 12.0978730707017874   T   T   T
 -0.0000000238255593  2.7511350289635272 14.7862892966870021   T   T   T
  2.3825527885853299  1.3755675213596001  1.3442081667609207   T   T   T
 -0.0000000238255593  0.0000000137556730  4.0326243927461363   T   T   T
  0.6375772871958203  3.8554513254057023  6.7210406187313536   T   T   T
 -1.2751546458683194  2.7511350289635277  6.7210406187313536   T   T   T
  1.7449754775639577  2.4798838178017748  9.4094568447165692   T   T   T
  1.7449754775639574  0.2712512249174249  9.4094568447165692   T   T   T
  3.6577074106281020  1.3755675213595999  9.4094568447165692   T   T   T
  0.6375772871958203  1.6468187325213524  6.7210406187313536   T   T   T
  0.6375772871958203  1.1043163101978488 12.0978730707017874   T   T   T
  3.4899509789534746  0.0000000137556735 12.0978730707017874   T   T   T
 -0.6375773348469393  3.8554513254057023 14.7862892966870021   T   T   T
 -0.6375773348469396  1.6468187325213526 14.7862892966870021   T   T   T
  1.2751545982172012  2.7511350289635268 14.7862892966870021   T   T   T
 -1.7449755252150767  3.0223862401252801 12.0978730707017874   T   T   T
  3.0201300996067229  2.4798838178017748  1.3442081667609207   T   T   T
  1.1073981665425703  1.3755675213596006  1.3442081667609207   T   T   T
 -0.6375773348469393  1.1043163101978490  4.0326243927461363   T   T   T
  1.7449754775639574  3.0223862401252806  4.0326243927461363   T   T   T
  1.2751545982172012  0.0000000137556728  4.0326243927461363   T   T   T
  3.0201300996067229  0.2712512249174249  1.3442081667609207   T   T   T
 -0.0000000238255597  0.0000000137556730  8.0652487317239618   T   T   T
  2.3825527885853304  1.3755675213596004  5.3768325057387454   T   T   T
  2.3825527885853299  1.3755675213596004 13.4420811836943948   T   T   T
 -0.0000000238255593  2.7511350289635277 10.7536649577091783   T   T   T
 -0.0000000238255597  2.7511350289635277  2.6884162797535289   T   T   T
 -0.0000000238255593  0.0000000137556733  0.0000000537683125   T   T   T
