C  O  Ca
 1.0000000000000000
     4.7441871057577050    0.0000000000000000   -0.0000000000000000
    -2.3720935528788529    4.1085865538927449    0.0000000000000000
    -0.0000000000000009   -0.0000000000000009   16.0867476345714699
 C   O   Ca 
   6  18   6
Selective dynamics
Cartesian
 -0.0000000237209610  2.7390577162904588  6.7028115680272622   T   T   T
  2.3720935291578868  1.3695288649928776  9.3839361737891736   T   T   T
 -0.0000000237209661  0.0000000136952965 12.0650607795510840   T   T   T
 -0.0000000237209605  2.7390577162904588 14.7461853853129945   T   T   T
  2.3720935291578864  1.3695288649928776  1.3405623565034404   T   T   T
 -0.0000000237209656  0.0000000136952965  4.0216869622653517   T   T   T
  0.6383600319102605  3.8447297661662208  6.7028115680272622   T   T   T
 -1.2767201349833965  2.7390577162904588  6.7028115680272622   T   T   T
  1.7337334735266701  2.4752009148686396  9.3839361737891736   T   T   T
  1.7337334735266698  0.2638568151171174  9.3839361737891736   T   T   T
  3.6488136404203200  1.3695288649928774  9.3839361737891736   T   T   T
  0.6383600319102497  1.6333856664146984  6.7028115680272622   T   T   T
  0.6383600319102501  1.1056720635710571 12.0650607795510840   T   T   T
  3.4674669707743058  0.0000000136952965 12.0650607795510840   T   T   T
 -0.6383600793521707  3.8447297661662208 14.7461853853129945   T   T   T
 -0.6383600793521812  1.6333856664146984 14.7461853853129945   T   T   T
  1.2767200875414646  2.7390577162904588 14.7461853853129945   T   T   T
 -1.7337335209686013  3.0029145177122780 12.0650607795510840   T   T   T
  3.0104535847891012  2.4752009148686396  1.3405623565034404   T   T   T
  1.0953734178954559  1.3695288649928776  1.3405623565034404   T   T   T
 -0.6383600793521810  1.1056720635710573  4.0216869622653517   T   T   T
  1.7337334735266698  3.0029145177122785  4.0216869622653517   T   T   T
  1.2767200875414646  0.0000000136952962  4.0216869622653517   T   T   T
  3.0104535847891007  0.2638568151171176  1.3405623565034404   T   T   T
 -0.0000000237209661  0.0000000136952956  8.0433738709082174   T   T   T
  2.3720935291578868  1.3695288649928778  5.3622492651463070   T   T   T
  2.3720935291578864  1.3695288649928772 13.4056230824320401   T   T   T
 -0.0000000237209605  2.7390577162904588 10.7244984766701279   T   T   T
 -0.0000000237209610  2.7390577162904584  2.6811246593843956   T   T   T
 -0.0000000237209656  0.0000000136952967  0.0000000536224851   T   T   T
