Si
 1.0000000000000000
     5.5742805814998526    0.0000000000000000    0.0000000000000000
     0.0000000000000000    5.5742805814998526    0.0000000000000000
     0.0000000000000000    0.0000000000000000    5.5742805814998526
 Si 
   8
Selective dynamics
Cartesian
  1.3935701490699297  4.1807104370167760  1.3935701490699297   T   T   T
  0.0000000036949666  0.0000000008918866  2.7871402944448929   T   T   T
  1.3935701490699297  1.3935701462668497  4.1807104398198565   T   T   T
  0.0000000036949666  2.7871402916418129  0.0000000036949666   T   T   T
  4.1807104398198565  4.1807104370167760  4.1807104398198565   T   T   T
  2.7871402944448929  0.0000000008918866  0.0000000036949666   T   T   T
  4.1807104398198565  1.3935701462668497  1.3935701490699297   T   T   T
  2.7871402944448929  2.7871402916418129  2.7871402944448929   T   T   T
Cartesian
  0.0000000000000000  0.0000000000000000  0.0000000000000000
  0.0000000000000000  0.0000000000000000  0.0000000000000000
  0.0000000000000000  0.0000000000000000  0.0000000000000000
  0.0000000000000000  0.0000000000000000  0.0000000000000000
  0.0000000000000000  0.0000000000000000  0.0000000000000000
  0.0000000000000000  0.0000000000000000  0.0000000000000000
  0.0000000000000000  0.0000000000000000  0.0000000000000000
  0.0000000000000000  0.0000000000000000  0.0000000000000000
