Si
1.02
     5.4649809622547574    0.0000000000000000   -0.0000000000000000
     0.0000000000000000    5.4649809622547574   -0.0000000000000000
    -0.0000000000000000   -0.0000000000000000    5.4649809622547574
 Si 
   8
Selective dynamics
Cartesian
  1.3662452441862056  4.0987357225654666  1.3662452441862056   T   T   T
  0.0000000036225165  0.0000000008744005  2.7324904847498952   T   T   T
  1.3662452441862056  1.3662452414380899  4.0987357253135821   T   T   T
  0.0000000036225165  2.7324904820017784  0.0000000036225161   T   T   T
  4.0987357253135821  4.0987357225654666  4.0987357253135821   T   T   T
  2.7324904847498956  0.0000000008744005  0.0000000036225161   T   T   T
  4.0987357253135821  1.3662452414380899  1.3662452441862056   T   T   T
  2.7324904847498956  2.7324904820017784  2.7324904847498952   T   T   T
Cartesian
  0.0000000000000000  0.0000000000000000  0.0000000000000000
  0.0000000000000000  0.0000000000000000  0.0000000000000000
  0.0000000000000000  0.0000000000000000  0.0000000000000000
  0.0000000000000000  0.0000000000000000  0.0000000000000000
  0.0000000000000000  0.0000000000000000  0.0000000000000000
  0.0000000000000000  0.0000000000000000  0.0000000000000000
  0.0000000000000000  0.0000000000000000  0.0000000000000000
  0.0000000000000000  0.0000000000000000  0.0000000000000000
