C  O  Ca
 1.0000000000000000
     9.4883742115154099    0.0000000000000000    0.0000000000000000
    -4.7441871057577059    8.2171731077854897    0.0000000000000000
    -0.0000000000000009   -0.0000000000000009   16.0867476345714699
 C   O   Ca 
  24  72  24
Cartesian
 -0.0000000237209608  2.7390577162904588  6.7028115680272622
  4.7441870820367456  2.7390577162904588  6.7028115680272622
 -2.3720935765998137  6.8476442701832045  6.7028115680272622
  2.3720935291578917  6.8476442701832045  6.7028115680272622
  2.3720935291578877  1.3695288649928776  9.3839361737891736
  7.1162806349155900  1.3695288649928776  9.3839361737891736
 -0.0000000237209654  5.4781154188856220  9.3839361737891736
  4.7441870820367367  5.4781154188856220  9.3839361737891736
  9.4883741877944452  0.0000000136952965 12.0650607795510840
  4.7441870820367384  0.0000000136952965 12.0650607795510840
  7.1162806349155909  4.1085865675880422 12.0650607795510840
  2.3720935291578851  4.1085865675880422 12.0650607795510840
 -0.0000000237209602  2.7390577162904588 14.7461853853129945
  4.7441870820367447  2.7390577162904588 14.7461853853129945
 -2.3720935765998128  6.8476442701832037 14.7461853853129945
  2.3720935291578913  6.8476442701832037 14.7461853853129945
  2.3720935291578864  1.3695288649928776  1.3405623565034404
  7.1162806349155900  1.3695288649928776  1.3405623565034404
 -0.0000000237209667  5.4781154188856220  1.3405623565034404
  4.7441870820367384  5.4781154188856220  1.3405623565034404
  9.4883741877944434  0.0000000136952965  4.0216869622653517
  4.7441870820367393  0.0000000136952965  4.0216869622653517
  7.1162806349155900  4.1085865675880431  4.0216869622653517
  2.3720935291578864  4.1085865675880431  4.0216869622653517
  0.6283600319102600  3.8447297661662208  6.7028115680272622
  5.3825471376679666  3.8447297661662208  6.7028115680272622
 -1.7337335209685925  7.9533163200589652  6.7028115680272622
  3.0104535847891123  7.9533163200589652  6.7028115680272622
 -1.2767201349833965  2.7390577162904588  6.7028115680272622
  3.4674669707743102  2.7390577162904588  6.7028115680272622
 -3.6488136878622495  6.8476442701832045  6.7028115680272622
  1.0953734178954568  6.8476442701832045  6.7028115680272622
  1.7337334735266707  2.4752009148686405  9.3839361737891736
  6.4779205792843744  2.4752009148686405  9.3839361737891736
 -0.6383600793521820  6.5837874687613844  9.3839361737891736
  4.1058270264055210  6.5837874687613844  9.3839361737891736
  1.7337334735266703  0.2638568151171174  9.3839361737891736
  6.4779205792843761  0.2638568151171174  9.3839361737891736
 -0.6383600793521836  4.3724433690098632  9.3839361737891736
  4.1058270264055210  4.3724433690098632  9.3839361737891736
  3.6488136404203195  1.3695288649928774  9.3839361737891736
  8.3930007461780267  1.3695288649928774  9.3839361737891736
  1.2767200875414670  5.4781154188856211  9.3839361737891736
  6.0209071932991733  5.4781154188856211  9.3839361737891736
  0.6383600319102498  1.6333856664146984  6.7028115680272622
  5.3825471376679559  1.6333856664146984  6.7028115680272622
 -1.7337335209686024  5.7419722203074430  6.7028115680272622
  3.0104535847891025  5.7419722203074430  6.7028115680272622
  0.6383600319102499  1.1056720635710575 12.0650607795510840
  5.3825471376679550  1.1056720635710575 12.0650607795510840
 -1.7337335209686031  5.2142586174638019 12.0650607795510840
  3.0104535847891021  5.2142586174638019 12.0650607795510840
  3.4674669707743058  0.0000000136952965 12.0650607795510840
  8.2116540765320103  0.0000000136952965 12.0650607795510840
  1.0953734178954531  4.1085865675880422 12.0650607795510840
  5.8395605236531560  4.1085865675880422 12.0650607795510840
 -0.6383600793521704  3.8447297661662208 14.7461853853129945
  4.1058270264055343  3.8447297661662208 14.7461853853129945
 -3.0104536322310236  7.9533163200589652 14.7461853853129945
  1.7337334735266809  7.9533163200589652 14.7461853853129945
 -0.6383600793521811  1.6333856664146984 14.7461853853129945
  4.1058270264055237  1.6333856664146984 14.7461853853129945
 -3.0104536322310342  5.7419722203074430 14.7461853853129945
  1.7337334735266710  5.7419722203074430 14.7461853853129945
  1.2767200875414635  2.7390577162904588 14.7461853853129945
  6.0209071932991698  2.7390577162904588 14.7461853853129945
 -1.0953734653373890  6.8476442701832037 14.7461853853129945
  3.6488136404203164  6.8476442701832037 14.7461853853129945
  7.7546406905468093  3.0029145177122771 12.0650607795510840
  3.0104535847891043  3.0029145177122771 12.0650607795510840
  5.3825471376679559  7.1115010716050229 12.0650607795510840
  0.6383600319102508  7.1115010716050229 12.0650607795510840
  3.0104535847891007  2.4752009148686405  1.3405623565034404
  7.7546406905468066  2.4752009148686405  1.3405623565034404
  0.6383600319102476  6.5837874687613853  1.3405623565034404
  5.3825471376679532  6.5837874687613853  1.3405623565034404
  1.0953734178954559  1.3695288649928776  1.3405623565034404
  5.8395605236531605  1.3695288649928776  1.3405623565034404
 -1.2767201349833965  5.4781154188856220  1.3405623565034404
  3.4674669707743080  5.4781154188856220  1.3405623565034404
  8.8500141321632295  1.1056720635710573  4.0216869622653517
  4.1058270264055245  1.1056720635710573  4.0216869622653517
  6.4779205792843761  5.2142586174638028  4.0216869622653517
  1.7337334735266712  5.2142586174638028  4.0216869622653517
  1.7337334735266707  3.0029145177122776  4.0216869622653517
  6.4779205792843753  3.0029145177122776  4.0216869622653517
 -0.6383600793521823  7.1115010716050238  4.0216869622653517
  4.1058270264055219  7.1115010716050238  4.0216869622653517
  1.2767200875414644  0.0000000136952962  4.0216869622653517
  6.0209071932991698  0.0000000136952962  4.0216869622653517
 -1.0953734653373883  4.1085865675880422  4.0216869622653517
  3.6488136404203164  4.1085865675880422  4.0216869622653517
  3.0104535847891016  0.2638568151171176  1.3405623565034404
  7.7546406905468057  0.2638568151171176  1.3405623565034404
  0.6383600319102483  4.3724433690098632  1.3405623565034404
  5.3825471376679532  4.3724433690098632  1.3405623565034404
  9.4883741877944434  0.0000000136952956  8.0433738709082174
  4.7441870820367393  0.0000000136952956  8.0433738709082174
  7.1162806349155900  4.1085865675880404  8.0433738709082174
  2.3720935291578864  4.1085865675880404  8.0433738709082174
  2.3720935291578860  1.3695288649928778  5.3622492651463070
  7.1162806349155909  1.3695288649928778  5.3622492651463070
 -0.0000000237209665  5.4781154188856229  5.3622492651463070
  4.7441870820367384  5.4781154188856229  5.3622492651463070
  2.3720935291578855  1.3695288649928772 13.4056230824320401
  7.1162806349155900  1.3695288649928772 13.4056230824320401
 -0.0000000237209669  5.4781154188856211 13.4056230824320401
  4.7441870820367384  5.4781154188856211 13.4056230824320401
 -0.0000000237209597  2.7390577162904588 10.7244984766701279
  4.7441870820367447  2.7390577162904588 10.7244984766701279
 -2.3720935765998128  6.8476442701832037 10.7244984766701279
  2.3720935291578926  6.8476442701832037 10.7244984766701279
 -0.0000000237209606  2.7390577162904588  2.6811246593843956
  4.7441870820367447  2.7390577162904588  2.6811246593843956
 -2.3720935765998132  6.8476442701832037  2.6811246593843956
  2.3720935291578926  6.8476442701832037  2.6811246593843956
  9.4883741877944434  0.0000000136952967  0.0000000536224851
  4.7441870820367393  0.0000000136952967  0.0000000536224851
  7.1162806349155900  4.1085865675880431  0.0000000536224851
  2.3720935291578860  4.1085865675880431  0.0000000536224851
