C  O  Ca
 1.0000000000000000
     5.0660596642842082    0.0000000000000000    0.0000000000000000
    -2.5330298321421041    4.3873363663577889   -0.0000000000000000
    -0.0000000000000004    0.0000000000000002   17.1492656099688574
 C   O   Ca 
   6  18   6
Selective dynamics
Cartesian
 -0.0000000253303381  2.9248909255296449  7.1455273946512285   T   T   T
  2.5330298068117720  1.4624454700770484 10.0037383296460387   T   T   T
 -0.0000000253303321  0.0000000146244519 12.8619492646408471   T   T   T
 -0.0000000253303381  2.9248909255296449 15.7201601996356572   T   T   T
  2.5330298068117720  1.4624454700770484  1.4291055246616100   T   T   T
 -0.0000000253303321  0.0000000146244519  4.2873164596564202   T   T   T
  0.6467789795357431  4.0451450232265422  7.1455273946512285   T   T   T
 -1.2935580350625053  2.9248909255296449  7.1455273946512285   T   T   T
  1.8862508019456816  2.5826995677739428 10.0037383296460387   T   T   T
  1.8862508019456894  0.3421913723801536 10.0037383296460387   T   T   T
  3.8265878165439395  1.4624454700770486 10.0037383296460387   T   T   T
  0.6467789795357476  1.8046368278327516  7.1455273946512285   T   T   T
  0.6467789795357467  1.1202541123213459 12.8619492646408471   T   T   T
  3.7725016292217100  0.0000000146244519 12.8619492646408471   T   T   T
 -0.6467790301964224  4.0451450232265413 15.7201601996356572   T   T   T
 -0.6467790301964181  1.8046368278327503 15.7201601996356572   T   T   T
  1.2935579844018272  2.9248909255296449 15.7201601996356572   T   T   T
 -1.8862508526063599  3.2670822832853470 12.8619492646408471   T   T   T
  3.1798088116778556  2.5826995677739437  1.4291055246616100   T   T   T
  1.2394717970796059  1.4624454700770484  1.4291055246616100   T   T   T
 -0.6467790301964188  1.1202541123213450  4.2873164596564202   T   T   T
  1.8862508019456823  3.2670822832853457  4.2873164596564202   T   T   T
  1.2935579844018343  0.0000000146244521  4.2873164596564202   T   T   T
  3.1798088116778565  0.3421913723801549  1.4291055246616100   T   T   T
 -0.0000000253303325  0.0000000146244519  8.5746328621486327   T   T   T
  2.5330298068117720  1.4624454700770486  5.7164219271538244   T   T   T
  2.5330298068117716  1.4624454700770484 14.2910547321382513   T   T   T
 -0.0000000253303381  2.9248909255296449 11.4328437971434429   T   T   T
 -0.0000000253303385  2.9248909255296449  2.8582109921590142   T   T   T
 -0.0000000253303321  0.0000000146244521  0.0000000571642058   T   T   T
