C  O  Ca
 1.0000000000000000
     5.0937587872345897    0.0000000000000000    0.0000000000000000
    -2.5468793936172944    4.4113245104953673    0.0000000000000000
    -0.0000000000000009    0.0000000000000005   17.2720869339609528
 C   O   Ca 
   6  18   6
Selective dynamics
Cartesian
 -0.0000000254688325  2.9408830217013344  7.1967029467240105   T   T   T
  2.5468793681484683  1.4704415182028789 10.0753841023841701   T   T   T
 -0.0000000254688262  0.0000000147044235 12.9540652580443272   T   T   T
 -0.0000000254688325  2.9408830217013344 15.8327464137044878   T   T   T
  2.5468793681484683  1.4704415182028789  1.4393406354036928   T   T   T
 -0.0000000254688262  0.0000000147044235  4.3180217910638525   T   T   T
  0.6483702266374312  4.0638932404656245  7.1967029467240105   T   T   T
 -1.2967405296813592  2.9408830217013344  7.1967029467240105   T   T   T
  1.8985091160422012  2.5934517369671743 10.0753841023841701   T   T   T
  1.8985091160422018  0.3474312994385841 10.0753841023841701   T   T   T
  3.8436198723610020  1.4704415182028792 10.0753841023841701   T   T   T
  0.6483702266374405  1.8178728029370395  7.1967029467240105   T   T   T
  0.6483702266374399  1.1230102334687193 12.9540652580443272   T   T   T
  3.7970182575532294  0.0000000147044235 12.9540652580443272   T   T   T
 -0.6483702775751019  4.0638932404656236 15.8327464137044878   T   T   T
 -0.6483702775750924  1.8178728029370388 15.8327464137044878   T   T   T
  1.2967404787437071  2.9408830217013344 15.8327464137044878   T   T   T
 -1.8985091669798537  3.2883143064354945 12.9540652580443272   T   T   T
  3.1952496202547347  2.5934517369671752  1.4393406354036928   T   T   T
  1.2501388639359352  1.4704415182028789  1.4393406354036928   T   T   T
 -0.6483702775750931  1.1230102334687184  4.3180217910638525   T   T   T
  1.8985091160422021  3.2883143064354940  4.3180217910638525   T   T   T
  1.2967404787437071  0.0000000147044237  4.3180217910638525   T   T   T
  3.1952496202547351  0.3474312994385844  1.4393406354036928   T   T   T
 -0.0000000254688262  0.0000000147044243  8.6360435245540899   T   T   T
  2.5468793681484683  1.4704415182028792  5.7573623688939310   T   T   T
  2.5468793681484683  1.4704415182028794 14.3934058358744075   T   T   T
 -0.0000000254688325  2.9408830217013344 11.5147246802142487   T   T   T
 -0.0000000254688325  2.9408830217013349  2.8786812132337722   T   T   T
 -0.0000000254688262  0.0000000147044237  0.0000000575736134   T   T   T
