C  O  Ca
 1.0000000000000000
     9.8315446640308419    0.0000000000000000    0.0000000000000000
    -4.9157723320154210    8.5143674374920515    0.0000000000000000
    -0.0000000000000003    0.0000000000000001   16.6843555920723396
 C   O   Ca 
  24  72  24
Cartesian
 -0.0000000245789074  2.8381224933546503  6.9518148856446569
  4.9157723074365141  2.8381224933546503  6.9518148856446569
 -2.4578861905866178  7.0953062121006765  6.9518148856446569
  2.4578861414288036  7.0953062121006765  6.9518148856446569
  2.4578861414288045  1.4190612537726417  9.7325408176567123
  7.3736584734442241  1.4190612537726417  9.7325408176567123
 -0.0000000245789068  5.6762449725186670  9.7325408176567123
  4.9157723074365141  5.6762449725186670  9.7325408176567123
  9.8315446394519341  0.0000000141906331 12.5132667496687695
  4.9157723074365149  0.0000000141906331 12.5132667496687695
  7.3736584734442241  4.2571837329366593 12.5132667496687695
  2.4578861414288027  4.2571837329366593 12.5132667496687695
 -0.0000000245789071  2.8381224933546503 15.2939926816808232
  4.9157723074365141  2.8381224933546503 15.2939926816808232
 -2.4578861905866178  7.0953062121006765 15.2939926816808232
  2.4578861414288031  7.0953062121006765 15.2939926816808232
  2.4578861414288031  1.4190612537726417  1.3903630216205447
  7.3736584734442241  1.4190612537726417  1.3903630216205447
 -0.0000000245789080  5.6762449725186670  1.3903630216205447
  4.9157723074365141  5.6762449725186670  1.3903630216205447
  9.8315446394519341  0.0000000141906331  4.1710889536326006
  4.9157723074365158  0.0000000141906331  4.1710889536326006
  7.3736584734442241  4.2571837329366593  4.1710889536326006
  2.4578861414288040  4.2571837329366593  4.1710889536326006
  0.6427106983364319  3.9513301200133375  6.9618148856446567
  5.5584830303518524  3.9513301200133375  6.9518148856446569
 -1.8151754676712788  8.2085138387593624  6.9518148856446569
  3.1005968643441424  8.2085138387593624  6.9518148856446569
 -1.2854214704095843  2.8381224933546503  6.9518148856446569
  3.6303508616058364  2.8381224933546503  6.9518148856446569
 -3.7433076364172950  7.0953062121006765  6.9518148856446569
  1.1724646955981246  7.0953062121006765  6.9518148856446569
  1.8151754185134650  2.5322688804313285  9.7325408176567123
  6.7309477505288848  2.5322688804313285  9.7325408176567123
 -0.6427107474942456  6.7894525991773547  9.7325408176567123
  4.2730615845211748  6.7894525991773547  9.7325408176567123
  1.8151754185134656  0.3058536271139529  9.7325408176567123
  6.7309477505288884  0.3058536271139529  9.7325408176567123
 -0.6427107474942448  4.5630373458599784  9.7325408176567123
  4.2730615845211757  4.5630373458599784  9.7325408176567123
  3.7433075872594790  1.4190612537726419  9.7325408176567123
  8.6590799192749035  1.4190612537726419  9.7325408176567123
  1.2854214212517685  5.6762449725186670  9.7325408176567123
  6.2011937532671908  5.6762449725186670  9.7325408176567123
  0.6427106983364314  1.7249148666959619  6.9518148856446569
  5.5584830303518524  1.7249148666959619  6.9518148856446569
 -1.8151754676712792  5.9820985854419879  6.9518148856446569
  3.1005968643441428  5.9820985854419879  6.9518148856446569
  0.6427106983364320  1.1132076408493217 12.5132667496687695
  5.5584830303518542  1.1132076408493217 12.5132667496687695
 -1.8151754676712786  5.3703913595953470 12.5132667496687695
  3.1005968643441411  5.3703913595953470 12.5132667496687695
  3.6303508616058378  0.0000000141906331 12.5132667496687695
  8.5461231936212592  0.0000000141906331 12.5132667496687695
  1.1724646955981268  4.2571837329366593 12.5132667496687695
  6.0882370276135491  4.2571837329366593 12.5132667496687695
 -0.6427107474942453  3.9513301200133366 15.2939926816808232
  4.2730615845211757  3.9513301200133366 15.2939926816808232
 -3.1005969135019567  8.2085138387593624 15.2939926816808232
  1.8151754185134636  8.2085138387593624 15.2939926816808232
 -0.6427107474942453  1.7249148666959613 15.2939926816808232
  4.2730615845211766  1.7249148666959613 15.2939926816808232
 -3.1005969135019558  5.9820985854419870 15.2939926816808232
  1.8151754185134663  5.9820985854419870 15.2939926816808232
  1.2854214212517692  2.8381224933546503 15.2939926816808232
  6.2011937532671908  2.8381224933546503 15.2939926816808232
 -1.1724647447559415  7.0953062121006765 15.2939926816808232
  3.7433075872594799  7.0953062121006765 15.2939926816808232
  8.0163691963595625  3.1439761062779712 12.5132667496687695
  3.1005968643441415  3.1439761062779712 12.5132667496687695
  5.5584830303518515  7.4011598250239974 12.5132667496687695
  0.6427106983364311  7.4011598250239974 12.5132667496687695
  3.1005968643441415  2.5322688804313298  1.3903630216205447
  8.0163691963595607  2.5322688804313298  1.3903630216205447
  0.6427106983364308  6.7894525991773556  1.3903630216205447
  5.5584830303518507  6.7894525991773556  1.3903630216205447
  1.1724646955981268  1.4190612537726417  1.3903630216205447
  6.0882370276135473  1.4190612537726417  1.3903630216205447
 -1.2854214704095841  5.6762449725186670  1.3903630216205447
  3.6303508616058373  5.6762449725186670  1.3903630216205447
  9.1888339165365966  1.1132076408493208  4.1710889536326006
  4.2730615845211757  1.1132076408493208  4.1710889536326006
  6.7309477505288866  5.3703913595953461  4.1710889536326006
  1.8151754185134654  5.3703913595953461  4.1710889536326006
  1.8151754185134659  3.1439761062779708  4.1710889536326006
  6.7309477505288875  3.1439761062779708  4.1710889536326006
 -0.6427107474942445  7.4011598250239965  4.1710889536326006
  4.2730615845211775  7.4011598250239965  4.1710889536326006
  1.2854214212517705  0.0000000141906333  4.1710889536326006
  6.2011937532671899  0.0000000141906333  4.1710889536326006
 -1.1724647447559404  4.2571837329366593  4.1710889536326006
  3.7433075872594808  4.2571837329366593  4.1710889536326006
  3.1005968643441411  0.3058536271139538  1.3903630216205447
  8.0163691963595625  0.3058536271139538  1.3903630216205447
  0.6427106983364305  4.5630373458599793  1.3903630216205447
  5.5584830303518515  4.5630373458599793  1.3903630216205447
  9.8315446394519341  0.0000000141906327  8.3421778516506855
  4.9157723074365141  0.0000000141906327  8.3421778516506855
  7.3736584734442241  4.2571837329366584  8.3421778516506855
  2.4578861414288036  4.2571837329366584  8.3421778516506855
  2.4578861414288036  1.4190612537726419  5.5614519196386292
  7.3736584734442241  1.4190612537726419  5.5614519196386292
 -0.0000000245789067  5.6762449725186670  5.5614519196386292
  4.9157723074365141  5.6762449725186670  5.5614519196386292
  2.4578861414288022  1.4190612537726415 13.9036297156747963
  7.3736584734442250  1.4190612537726415 13.9036297156747963
 -0.0000000245789082  5.6762449725186670 13.9036297156747963
  4.9157723074365141  5.6762449725186670 13.9036297156747963
 -0.0000000245789070  2.8381224933546503 11.1229037836627374
  4.9157723074365141  2.8381224933546503 11.1229037836627374
 -2.4578861905866169  7.0953062121006765 11.1229037836627374
  2.4578861414288036  7.0953062121006765 11.1229037836627374
 -0.0000000245789073  2.8381224933546503  2.7807259876265737
  4.9157723074365141  2.8381224933546503  2.7807259876265737
 -2.4578861905866178  7.0953062121006765  2.7807259876265737
  2.4578861414288036  7.0953062121006765  2.7807259876265737
  9.8315446394519341  0.0000000141906333  0.0000000556145174
  4.9157723074365141  0.0000000141906333  0.0000000556145174
  7.3736584734442241  4.2571837329366593  0.0000000556145174
  2.4578861414288040  4.2571837329366593  0.0000000556145174
