C  O  Ca
 1.0000000000000000
     5.1162186708612793   -0.0000000000000000   -0.0000000000000000
    -2.5581093354306397    4.4307753402821222   -0.0000000000000000
    -0.0000000000000009    0.0000000000000002   17.3190603189784476
 C   O   Ca 
   6  18   6
Selective dynamics
Cartesian
 -0.0000000255811274  2.9538502416239969  7.2162751906378748   T   T   T
  2.5581093098495122  1.4769251281966227 10.1027852438009482   T   T   T
 -0.0000000255811274  0.0000000147692485 12.9892952969640234   T   T   T
 -0.0000000255811274  2.9538502416239969 15.8758053501270950   T   T   T
  2.5581093098495122  1.4769251281966227  1.4432550843117271   T   T   T
 -0.0000000255811274  0.0000000147692485  4.3297651374748005   T   T   T
  0.6479121923616329  4.0760671219455009  7.2162751906378748   T   T   T
 -1.2958244614666499  2.9538502416239965  7.2162751906378748   T   T   T
  1.9101970919067666  2.5991420085181240 10.1027852438009482   T   T   T
  1.9101970919067672  0.3547082478751197 10.1027852438009482   T   T   T
  3.8539337457350658  1.4769251281966229 10.1027852438009482   T   T   T
  0.6479121923616338  1.8316333613024951  7.2162751906378748   T   T   T
  0.6479121923616329  1.1222168950907510 12.9892952969640234   T   T   T
  3.8203942093946615  0.0000000147692480 12.9892952969640234   T   T   T
 -0.6479122435238891  4.0760671219455009 15.8758053501270950   T   T   T
 -0.6479122435238884  1.8316333613024947 15.8758053501270950   T   T   T
  1.2958244103043943  2.9538502416239973 15.8758053501270950   T   T   T
 -1.9101971430690219  3.3085584747298697 12.9892952969640234   T   T   T
  3.2060215277923061  2.5991420085181245  1.4432550843117271   T   T   T
  1.2622848739639898  1.4769251281966222  1.4432550843117271   T   T   T
 -0.6479122435238891  1.1222168950907505  4.3297651374748005   T   T   T
  1.9101970919067672  3.3085584747298693  4.3297651374748005   T   T   T
  1.2958244103043943  0.0000000147692487  4.3297651374748005   T   T   T
  3.2060215277923070  0.3547082478751206  1.4432550843117271   T   T   T
 -0.0000000255811274  0.0000000147692480  8.6595302172194124   T   T   T
  2.5581093098495122  1.4769251281966229  5.7730201640563381   T   T   T
  2.5581093098495122  1.4769251281966227 14.4325503235455592   T   T   T
 -0.0000000255811274  2.9538502416239973 11.5460402703824858   T   T   T
 -0.0000000255811274  2.9538502416239969  2.8865101108932647   T   T   T
 -0.0000000255811274  0.0000000147692487  0.0000000577301904   T   T   T
