C  O  Ca
 1.0000000000000000
     4.7941259173972606   -0.0000000000000000   -0.0000000000000000
    -2.3970629586986298    4.1518348334074036   -0.0000000000000000
    -0.0000000000000009    0.0000000000000005   16.2560818201985420
 C   O   Ca 
   6  18   6
Selective dynamics
Cartesian
 -0.0000000239706557  2.7678899027777262  6.7733674792696563   T   T   T
  2.3970629347279702  1.3839449583085917  9.4827144493027475   T   T   T
 -0.0000000239706597  0.0000000138394571 12.1920614193358361   T   T   T
 -0.0000000239706557  2.7678899027777262 14.9014083893689282   T   T   T
  2.3970629347279702  1.3839449583085917  1.3546735392034757   T   T   T
 -0.0000000239706597  0.0000000138394571  4.0640205092365669   T   T   T
  0.6401222468357051  3.8766141988707123  6.7733674792696563   T   T   T
 -1.2802445655833754  2.7678899027777262  6.7733674792696563   T   T   T
  1.7569406639216210  2.4926692544015769  9.4827144493027475   T   T   T
  1.7569406639216214  0.2752206622156039  9.4827144493027475   T   T   T
  3.6773074763407259  1.3839449583085919  9.4827144493027475   T   T   T
  0.6401222468357128  1.6591656066847382  6.7733674792696563   T   T   T
  0.6401222468357047  1.1087243099324458 12.1920614193358361   T   T   T
  3.5138813518139020  0.0000000138394571 12.1920614193358361   T   T   T
 -0.6401222947770246  3.8766141988707115 14.9014083893689282   T   T   T
 -0.6401222947770173  1.6591656066847378 14.9014083893689282   T   T   T
  1.2802445176420854  2.7678899027777262 14.9014083893689282   T   T   T
 -1.7569407118629259  3.0431105511538745 12.1920614193358361   T   T   T
  3.0371852055343629  2.4926692544015783  1.3546735392034757   T   T   T
  1.1168183931152400  1.3839449583085917  1.3546735392034757   T   T   T
 -0.6401222947770250  1.1087243099324446  4.0640205092365669   T   T   T
  1.7569406639216358  3.0431105511538745  4.0640205092365669   T   T   T
  1.2802445176420709  0.0000000138394574  4.0640205092365669   T   T   T
  3.0371852055343638  0.2752206622156046  1.3546735392034757   T   T   T
 -0.0000000239706601  0.0000000138394567  8.1280409642862015   T   T   T
  2.3970629347279702  1.3839449583085919  5.4186939942531112   T   T   T
  2.3970629347279697  1.3839449583085914 13.5467349043523821   T   T   T
 -0.0000000239706557  2.7678899027777262 10.8373879343192918   T   T   T
 -0.0000000239706562  2.7678899027777262  2.7093470242200208   T   T   T
 -0.0000000239706597  0.0000000138394574  0.0000000541869305   T   T   T
