C  O  Ca
 1.0000000000000000
     9.8878847046318512    0.0000000000000000    0.0000000000000000
    -4.9439423523159247    8.5631593439027700    0.0000000000000000
    -0.0000000000000009    0.0000000000000005   16.7640843770797474
 C   O   Ca 
  24  72  24
Cartesian
 -0.0000000247197418  2.8543864622395305  6.9850352129968334
  4.9439423275961847  2.8543864622395305  6.9850352129968334
 -2.4719712008777042  7.1359661341909151  6.9850352129968334
  2.4719711514382205  7.1359661341909151  6.9850352129968334
  2.4719711514382205  1.4271932382557353  9.7790492758434588
  7.4159135037541457  1.4271932382557353  9.7790492758434588
 -0.0000000247197418  5.7087729102071201  9.7790492758434588
  4.9439423275961838  5.7087729102071201  9.7790492758434588
  9.8878846799121103  0.0000000142719401 12.5730633386900834
  4.9439423275961820  0.0000000142719401 12.5730633386900834
  7.4159135037541430  4.2815796862233251 12.5730633386900834
  2.4719711514382197  4.2815796862233251 12.5730633386900834
 -0.0000000247197418  2.8543864622395305 15.3670774015367080
  4.9439423275961856  2.8543864622395305 15.3670774015367080
 -2.4719712008777046  7.1359661341909160 15.3670774015367080
  2.4719711514382228  7.1359661341909160 15.3670774015367080
  2.4719711514382197  1.4271932382557353  1.3970070873035838
  7.4159135037541466  1.4271932382557353  1.3970070873035838
 -0.0000000247197418  5.7087729102071201  1.3970070873035838
  4.9439423275961847  5.7087729102071201  1.3970070873035838
  9.8878846799121103  0.0000000142719401  4.1910211501502097
  4.9439423275961838  0.0000000142719401  4.1910211501502097
  7.4159135037541457  4.2815796862233251  4.1910211501502097
  2.4719711514382201  4.2815796862233251  4.1910211501502097
  0.6547143197538199  3.9710644632362051  6.9850352129968334
  5.5886566720697459  3.9710644632362051  6.9850352129968334
 -1.8272568564041427  8.2526441351875892  6.9850352129968334
  3.1166854959117827  8.2526441351875892  6.9850352129968334
 -1.2894287136668645  2.8543864622395305  6.9850352129968334
  3.6545136386490613  2.8543864622395305  6.9850352129968334
 -3.7613998898248275  7.1359661341909151  6.9850352129968334
  1.1825424624910992  7.1359661341909151  6.9850352129968334
  1.8272568069646566  2.5438712392524101  9.7790492758434588
  6.7711991592805827  2.5438712392524101  9.7790492758434588
 -0.6447143691933063  6.8254509112037942  9.7790492758434588
  4.2992279831226208  6.8254509112037942  9.7790492758434588
  1.8272568069646560  0.3105152372590608  9.7790492758434588
  6.7711991592805818  0.3105152372590608  9.7790492758434588
 -0.6447143691933062  4.5920949092104451  9.7790492758434588
  4.2992279831226199  4.5920949092104451  9.7790492758434588
  3.7613998403853470  1.4271932382557351  9.7790492758434588
  8.7053421927012753  1.4271932382557351  9.7790492758434588
  1.2894286642273847  5.7087729102071201  9.7790492758434588
  6.2333710165433098  5.7087729102071201  9.7790492758434588
  0.6447143197538238  1.7377084612428555  6.9850352129968334
  5.5886566720697495  1.7377084612428555  6.9850352129968334
 -1.8272568564041387  6.0192881331942401  6.9850352129968334
  3.1166854959117885  6.0192881331942401  6.9850352129968334
  0.6447143197538207  1.1166780152686147 12.5730633386900834
  5.5886566720697450  1.1166780152686147 12.5730633386900834
 -1.8272568564041420  5.3982576872200001 12.5730633386900834
  3.1166854959117831  5.3982576872200001 12.5730633386900834
  3.6545136386490551  0.0000000142719401 12.5730633386900834
  8.5984559909649825  0.0000000142719401 12.5730633386900834
  1.1825424624910927  4.2815796862233251 12.5730633386900834
  6.1264848148070170  4.2815796862233251 12.5730633386900834
 -0.6447143691933073  3.9710644632362051 15.3670774015367080
  4.2992279831226190  3.9710644632362051 15.3670774015367080
 -3.1166855453512698  8.2526441351875892 15.3670774015367080
  1.8272568069646573  8.2526441351875892 15.3670774015367080
 -0.6447143691933039  1.7377084612428557 15.3670774015367080
  4.2992279831226208  1.7377084612428557 15.3670774015367080
 -3.1166855453512667  6.0192881331942418 15.3670774015367080
  1.8272568069646595  6.0192881331942418 15.3670774015367080
  1.2894286642273900  2.8543864622395305 15.3670774015367080
  6.2333710165433169  2.8543864622395305 15.3670774015367080
 -1.1825425119305726  7.1359661341909160 15.3670774015367080
  3.7613998403853541  7.1359661341909160 15.3670774015367080
  8.0606278482277176  3.1649016852266505 12.5730633386900834
  3.1166854959117885  3.1649016852266505 12.5730633386900834
  5.5886566720697504  7.4464813571780342 12.5730633386900834
  0.6447143197538268  7.4464813571780342 12.5730633386900834
  3.1166854959117827  2.5438712392524101  1.3970070873035838
  8.0606278482277087  2.5438712392524101  1.3970070873035838
  0.6447143197538201  6.8254509112037951  1.3970070873035838
  5.5886566720697468  6.8254509112037951  1.3970070873035838
  1.1825424624910925  1.4271932382557353  1.3970070873035838
  6.1264848148070170  1.4271932382557353  1.3970070873035838
 -1.2894287136668692  5.7087729102071201  1.3970070873035838
  3.6545136386490551  5.7087729102071201  1.3970070873035838
  9.2431703354385473  1.1166780152686151  4.1910211501502097
  4.2992279831226181  1.1166780152686151  4.1910211501502097
  6.7711991592805845  5.3982576872200001  4.1910211501502097
  1.8272568069646558  5.3982576872200001  4.1910211501502097
  1.8272568069646622  3.1649016852266509  4.1910211501502097
  6.7711991592805907  3.1649016852266509  4.1910211501502097
 -0.6447143691932993  7.4464813571780342  4.1910211501502097
  4.2992279831226270  7.4464813571780342  4.1910211501502097
  1.2894286642273842  0.0000000142719399  4.1910211501502097
  6.2333710165433098  0.0000000142719399  4.1910211501502097
 -1.1825425119305786  4.2815796862233251  4.1910211501502097
  3.7613998403853470  4.2815796862233251  4.1910211501502097
  3.1166854959117836  0.3105152372590601  1.3970070873035838
  8.0606278482277087  0.3105152372590601  1.3970070873035838
  0.6447143197538212  4.5920949092104451  1.3970070873035838
  5.5886566720697486  4.5920949092104451  1.3970070873035838
  9.8878846799121103  0.0000000142719401  8.3820422444201448
  4.9439423275961820  0.0000000142719401  8.3820422444201448
  7.4159135037541430  4.2815796862233251  8.3820422444201448
  2.4719711514382210  4.2815796862233251  8.3820422444201448
  2.4719711514382197  1.4271932382557355  5.5880281815735211
  7.4159135037541466  1.4271932382557355  5.5880281815735211
 -0.0000000247197421  5.7087729102071201  5.5880281815735211
  4.9439423275961847  5.7087729102071201  5.5880281815735211
  2.4719711514382201  1.4271932382557344 13.9700703701133939
  7.4159135037541466  1.4271932382557344 13.9700703701133939
 -0.0000000247197425  5.7087729102071201 13.9700703701133939
  4.9439423275961838  5.7087729102071201 13.9700703701133939
 -0.0000000247197418  2.8543864622395305 11.1760563072667694
  4.9439423275961838  2.8543864622395305 11.1760563072667694
 -2.4719712008777042  7.1359661341909151 11.1760563072667694
  2.4719711514382205  7.1359661341909151 11.1760563072667694
 -0.0000000247197420  2.8543864622395301  2.7940141187268948
  4.9439423275961847  2.8543864622395301  2.7940141187268948
 -2.4719712008777046  7.1359661341909151  2.7940141187268948
  2.4719711514382210  7.1359661341909151  2.7940141187268948
  9.8878846799121103  0.0000000142719403  0.0000000558802720
  4.9439423275961838  0.0000000142719403  0.0000000558802720
  7.4159135037541457  4.2815796862233251  0.0000000558802720
  2.4719711514382214  4.2815796862233251  0.0000000558802720
