C  O  Ca
 1.0000000000000000
     9.9877623279109606    0.0000000000000000    0.0000000000000000
    -4.9938811639554803    8.6496559029320910    0.0000000000000000
    -0.0000000000000009    0.0000000000000001   16.9334185627068123
 C   O   Ca 
  24  72  24
Cartesian
  0.0050803487804906  2.8832186487267983  7.0642044744910715
  4.9938811389860422  2.8832186487267983  7.0555911242392231
 -2.4969406069471778  7.2080466001928443  7.0555911242392231
  2.4969405570083016  7.2080466001928443  7.0555911242392231
  2.4969405570083021  1.4416093315714495  9.8778275513570257
  7.4908217209637824  1.4416093315714495  9.8778275513570257
 -0.0000000249694384  5.7664372830374946  9.8778275513570257
  4.9938811389860422  5.7664372830374946  9.8778275513570257
  9.9877623029415261  0.0000000144161008 12.7000639784748248
  4.9938811389860422  0.0000000144161008 12.7000639784748248
  7.4908217209637851  4.3248279658821467 12.7000639784748248
  2.4969405570083016  4.3248279658821467 12.7000639784748248
 -0.0000000249694375  2.8832186487267983 15.5223004055926292
  4.9938811389860422  2.8832186487267983 15.5223004055926292
 -2.4969406069471778  7.2080466001928443 15.5223004055926292
  2.4969405570083021  7.2080466001928443 15.5223004055926292
  2.4969405570083021  1.4416093315714495  1.4111182700036196
  7.4908217209637833  1.4416093315714495  1.4111182700036196
 -0.0000000249694384  5.7664372830374946  1.4111182700036196
  4.9938811389860431  5.7664372830374946  1.4111182700036196
  9.9877623029415243  0.0000000144161008  4.2333546971214222
  4.9938811389860440  0.0000000144161008  4.2333546971214222
  7.4908217209637860  4.3248279658821467  4.2333546971214222
  2.4969405570083021  4.3248279658821467  4.2333546971214222
  0.6460465376727732  4.0022041192783364  7.0555911242392231
  5.6399277016282534  4.0022041192783364  7.0555911242392231
 -1.8508940443049668  8.3270320707443819  7.0555911242392231
  3.1429871196505137  8.3270320707443819  7.0555911242392231
 -1.2920931502538595  2.8832186487267983  7.0555911242392231
  3.7017880137016212  2.8832186487267983  7.0555911242392231
 -3.7890337322315997  7.2080466001928443  7.0555911242392231
  1.2048474317238811  7.2080466001928443  7.0555911242392231
  1.8508939943660918  2.5605948021229890  9.8778275513570257
  6.8447751583215712  2.5605948021229890  9.8778275513570257
 -0.6460465876116488  6.8854227535890340  9.8778275513570257
  4.3478345763438311  6.8854227535890340  9.8778275513570257
  1.8508939943660916  0.3226238610199105  9.8778275513570257
  6.8447751583215695  0.3226238610199105  9.8778275513570257
 -0.6460465876116488  4.6474518124859561  9.8778275513570257
  4.3478345763438293  4.6474518124859561  9.8778275513570257
  3.7890336822927249  1.4416093315714493  9.8778275513570257
  8.7829148462482038  1.4416093315714493  9.8778275513570257
  1.2920931003149849  5.7664372830374946  9.8778275513570257
  6.2859742642704628  5.7664372830374946  9.8778275513570257
  0.6460465376727731  1.7642331781752596  7.0555911242392231
  5.6399277016282534  1.7642331781752596  7.0555911242392231
 -1.8508940443049673  6.0890611296413057  7.0555911242392231
  3.1429871196505128  6.0890611296413057  7.0555911242392231
  0.6460465376727729  1.1189854849676391 12.7000639784748248
  5.6399277016282543  1.1189854849676391 12.7000639784748248
 -1.8508940443049675  5.4438134364336852 12.7000639784748248
  3.1429871196505128  5.4438134364336852 12.7000639784748248
  3.7017880137016204  0.0000000144161008 12.7000639784748248
  8.6956691776571038  0.0000000144161008 12.7000639784748248
  1.2048474317238802  4.3248279658821467 12.7000639784748248
  6.1987285956793627  4.3248279658821467 12.7000639784748248
 -0.6460465876116488  4.0022041192783373 15.5223004055926292
  4.3478345763438311  4.0022041192783373 15.5223004055926292
 -3.1429871695893894  8.3270320707443837 15.5223004055926292
  1.8508939943660905  8.3270320707443837 15.5223004055926292
 -0.6460465876116488  1.7642331781752596 15.5223004055926292
  4.3478345763438320  1.7642331781752596 15.5223004055926292
 -3.1429871695893894  6.0890611296413057 15.5223004055926292
  1.8508939943660927  6.0890611296413057 15.5223004055926292
  1.2920931003149838  2.8832186487267983 15.5223004055926292
  6.2859742642704646  2.8832186487267983 15.5223004055926292
 -1.2048474816627555  7.2080466001928443 15.5223004055926292
  3.7890336822927244  7.2080466001928443 15.5223004055926292
  8.1368682836059971  3.2058424953306086 12.7000639784748248
  3.1429871196505133  3.2058424953306086 12.7000639784748248
  5.6399277016282543  7.5306704467966536 12.7000639784748248
  0.6460465376727738  7.5306704467966536 12.7000639784748248
  3.1429871196505141  2.5605948021229876  1.4111182700036196
  8.1368682836059936  2.5605948021229876  1.4111182700036196
  0.6460465376727735  6.8854227535890340  1.4111182700036196
  5.6399277016282525  6.8854227535890340  1.4111182700036196
  1.2048474317238802  1.4416093315714495  1.4111182700036196
  6.1987285956793601  1.4416093315714495  1.4111182700036196
 -1.2920931502538597  5.7664372830374946  1.4111182700036196
  3.7017880137016199  5.7664372830374946  1.4111182700036196
  9.3417157402993123  1.1189854849676397  4.2333546971214222
  4.3478345763438320  1.1189854849676397  4.2333546971214222
  6.8447751583215730  5.4438134364336852  4.2333546971214222
  1.8508939943660914  5.4438134364336852  4.2333546971214222
  1.8508939943660914  3.2058424953306086  4.2333546971214222
  6.8447751583215721  3.2058424953306086  4.2333546971214222
 -0.6460465876116486  7.5306704467966536  4.2333546971214222
  4.3478345763438329  7.5306704467966536  4.2333546971214222
  1.2920931003149849  0.0000000144161005  4.2333546971214222
  6.2859742642704655  0.0000000144161005  4.2333546971214222
 -1.2048474816627550  4.3248279658821458  4.2333546971214222
  3.7890336822927253  4.3248279658821458  4.2333546971214222
  3.1429871196505133  0.3226238610199107  1.4111182700036196
  8.1368682836059953  0.3226238610199107  1.4111182700036196
  0.6460465376727731  4.6474518124859561  1.4111182700036196
  5.6399277016282543  4.6474518124859561  1.4111182700036196
  9.9877623029415243  0.0000000144161003  8.4667093377981217
  4.9938811389860422  0.0000000144161003  8.4667093377981217
  7.4908217209637833  4.3248279658821458  8.4667093377981217
  2.4969405570083039  4.3248279658821458  8.4667093377981217
  2.4969405570083034  1.4416093315714498  5.6444729106803226
  7.4908217209637833  1.4416093315714498  5.6444729106803226
 -0.0000000249694369  5.7664372830374946  5.6444729106803226
  4.9938811389860431  5.7664372830374946  5.6444729106803226
  2.4969405570083012  1.4416093315714493 14.1111821920337288
  7.4908217209637824  1.4416093315714493 14.1111821920337288
 -0.0000000249694387  5.7664372830374946 14.1111821920337288
  4.9938811389860422  5.7664372830374946 14.1111821920337288
 -0.0000000249694375  2.8832186487267983 11.2889457649159262
  4.9938811389860422  2.8832186487267983 11.2889457649159262
 -2.4969406069471769  7.2080466001928443 11.2889457649159262
  2.4969405570083025  7.2080466001928443 11.2889457649159262
 -0.0000000249694375  2.8832186487267983  2.8222364835625218
  4.9938811389860422  2.8832186487267983  2.8222364835625218
 -2.4969406069471769  7.2080466001928443  2.8222364835625218
  2.4969405570083021  7.2080466001928443  2.8222364835625218
  9.9877623029415243  0.0000000144161010  0.0000000564447191
  4.9938811389860440  0.0000000144161010  0.0000000564447191
  7.4908217209637860  4.3248279658821467  0.0000000564447191
  2.4969405570083025  4.3248279658821467  0.0000000564447191
