C  O  Ca
 1.0000000000000000
     4.9439423523159256   -0.0000000000000000   -0.0000000000000000
    -2.4719711761579624    4.2815796719513850   -0.0000000000000000
    -0.0000000000000009    0.0000000000000005   16.7640843770797474
 C   O   Ca 
   6  18   6
Selective dynamics
Cartesian
 -0.0000000247197420  2.8543864622395305  6.9850352129968334   T   T   T
  2.4719711514382197  1.4271932382557353  9.7790492758434588   T   T   T
 -0.0000000247197431  0.0000000142719401 12.5730633386900834   T   T   T
 -0.0000000247197420  2.8543864622395305 15.3670774015367080   T   T   T
  2.4719711514382197  1.4271932382557353  1.3970070873035842   T   T   T
 -0.0000000247197431  0.0000000142719401  4.1910211501502097   T   T   T
  0.6447143197538204  3.9710644632362051  6.9850352129968334   T   T   T
 -1.2894287136668645  2.8543864622395305  6.9850352129968334   T   T   T
  1.8272568069646558  2.5438712392524101  9.7790492758434588   T   T   T
  1.8272568069646560  0.3105152372590608  9.7790492758434588   T   T   T
  3.7613998403853470  1.4271932382557351  9.7790492758434588   T   T   T
  0.6447143197538234  1.7377084612428555  6.9850352129968334   T   T   T
  0.6447143197538204  1.1166780152686151 12.5730633386900834   T   T   T
  3.6545136386490551  0.0000000142719401 12.5730633386900834   T   T   T
 -0.6447143691933072  3.9710644632362051 15.3670774015367080   T   T   T
 -0.6447143691933039  1.7377084612428557 15.3670774015367080   T   T   T
  1.2894286642273898  2.8543864622395305 15.3670774015367080   T   T   T
 -1.8272568564041365  3.1649016852266505 12.5730633386900834   T   T   T
  3.1166854959117827  2.5438712392524101  1.3970070873035842   T   T   T
  1.1825424624910925  1.4271932382557353  1.3970070873035842   T   T   T
 -0.6447143691933072  1.1166780152686151  4.1910211501502097   T   T   T
  1.8272568069646620  3.1649016852266509  4.1910211501502097   T   T   T
  1.2894286642273838  0.0000000142719399  4.1910211501502097   T   T   T
  3.1166854959117827  0.3105152372590601  1.3970070873035842   T   T   T
 -0.0000000247197431  0.0000000142719401  8.3820422444201448   T   T   T
  2.4719711514382197  1.4271932382557355  5.5880281815735211   T   T   T
  2.4719711514382197  1.4271932382557349 13.9700703701133939   T   T   T
 -0.0000000247197420  2.8543864622395305 11.1760563072667694   T   T   T
 -0.0000000247197420  2.8543864622395301  2.7940141187268956   T   T   T
 -0.0000000247197431  0.0000000142719403  0.0000000558802720   T   T   T
