C  O  Ca
 1.0000000000000000
     5.0438199755950350   -0.0000000000000000    0.0000000000000000
    -2.5219099877975175    4.3680762309807077    0.0000000000000000
    -0.0000000000000009   -0.0000000000000008   17.1027527483338844
 C   O   Ca 
   6  18   6
Selective dynamics
Cartesian
 -0.0000000252191321  2.9120508352140666  7.1261470354816181   T   T   T
  2.5219099625783850  1.4560254248871642  9.9766058268705997   T   T   T
 -0.0000000252191321  0.0000000145602619 12.8270646182595804   T   T   T
 -0.0000000252191321  2.9120508352140666 15.6775234096485612   T   T   T
  2.5219099625783850  1.4560254248871642  1.4252294527036566   T   T   T
 -0.0000000252191321  0.0000000145602619  4.2756882440926383   T   T   T
  0.6472710142220508  4.0331571617941160  7.1261470354816181   T   T   T
 -1.2945421041014984  2.9120508352140662  7.1261470354816181   T   T   T
  1.8746389231372034  2.5771317514672099  9.9766058268705997   T   T   T
  1.8746389231372040  0.3349190983071155  9.9766058268705997   T   T   T
  3.8164520414607477  1.4560254248871645  9.9766058268705997   T   T   T
  0.6472710142220512  1.7909445086340186  7.1261470354816181   T   T   T
  0.6472710142220508  1.1211063411403099 12.8270646182595804   T   T   T
  3.7492778714935393  0.0000000145602614 12.8270646182595804   T   T   T
 -0.6472710646603155  4.0331571617941151 15.6775234096485612   T   T   T
 -0.6472710646603148  1.7909445086340183 15.6775234096485612   T   T   T
  1.2945420536632346  2.9120508352140670 15.6775234096485612   T   T   T
 -1.8746389735754676  3.2469699189609220 12.8270646182595804   T   T   T
  3.1691810020195690  2.5771317514672107  1.4252294527036566   T   T   T
  1.2273678836960187  1.4560254248871638  1.4252294527036566   T   T   T
 -0.6472710646603155  1.1211063411403090  4.2756882440926383   T   T   T
  1.8746389231372040  3.2469699189609220  4.2756882440926383   T   T   T
  1.2945420536632346  0.0000000145602621  4.2756882440926383   T   T   T
  3.1691810020195694  0.3349190983071157  1.4252294527036566   T   T   T
 -0.0000000252191321  0.0000000145602614  8.5513764311761093   T   T   T
  2.5219099625783850  1.4560254248871645  5.7009176397871277   T   T   T
  2.5219099625783850  1.4560254248871638 14.2522940139540708   T   T   T
 -0.0000000252191321  2.9120508352140670 11.4018352225650901   T   T   T
 -0.0000000252191321  2.9120508352140662  2.8504588483981479   T   T   T
 -0.0000000252191321  0.0000000145602621  0.0000000570091663   T   T   T
