30
Lattice="4.99959539 0.0 0.0 -2.4997977 4.32977662 0.0 0.0 0.0 16.81153888" Properties=species:S:1:pos:R:3 init_sgn=167 task="unitcell optimization" ratio=#N/A sgn=#N/A opt=pre opt_conv=#N/A opt_steps=#N/A force_conv=T e_fr_energy=-231.88848876953125 e_0_energy=-231.88848876953125 force="_JSON [[3.1204262995743193e-07, -3.8240068533923477e-07, 1.8909486243501306e-07], [3.668174031190574e-08, -2.300730557180941e-07, -1.0008771056391197e-07], [5.829770088894293e-08, 5.168099050933961e-07, 6.269692676141858e-08], [8.98973667062819e-07, 4.068715497851372e-07, 9.094219421967864e-08], [-1.1849617749248864e-06, 3.468110776339017e-08, -2.1942804551144945e-07], [2.9753041985713935e-07, 4.79111008644395e-07, 7.916241884231567e-08], [-0.08186850696802139, -0.1417999267578125, -3.4059485187754035e-07], [0.16373762488365173, 2.1801497496198863e-07, -4.3536419980227947e-07], [0.0818687453866005, -0.14180082082748413, 2.0914376364089549e-07], [0.08186901360750198, 0.14180104434490204, 2.5661762492745765e-07], [-0.16373765468597412, 4.277535481378436e-08, 2.77704657491995e-07], [-0.08186850696802139, 0.1417996734380722, -4.396606527734548e-07], [-0.08186855167150497, -0.1418003886938095, -5.8542354963719845e-08], [0.16373732686042786, 2.1007872419431806e-07, -6.055779522284865e-08], [0.0818677768111229, -0.14179986715316772, 1.2077103406227252e-07], [0.08186794817447662, 0.14179950952529907, -1.938606146723032e-07], [-0.16373704373836517, 1.5471596270799637e-07, -9.371433407068253e-08], [-0.08186861872673035, 0.14179985225200653, -1.3253884389996529e-07], [-0.08186785876750946, -0.14179982244968414, 3.625609679147601e-07], [0.16373716294765472, -2.6437919586896896e-07, 4.986068233847618e-07], [0.08186862617731094, -0.14180079102516174, -1.5075784176588058e-07], [0.08186828345060349, 0.14180029928684235, -8.702045306563377e-08], [-0.16373750567436218, -1.0925577953457832e-07, -1.6891863197088242e-07], [-0.0818680077791214, 0.1418003886938095, 2.8689350983768236e-07], [3.702007234096527e-08, 1.4703255146741867e-07, -4.961083277521539e-07], [-1.4811008952619886e-07, -1.1864176485687494e-07, 1.379099558107555e-06], [-1.4451838126205985e-07, -6.079208958453819e-08, 3.5157427191734314e-07], [2.3811708160792477e-07, 6.635673344135284e-08, -9.176437743008137e-08], [4.016328603029251e-08, -1.0611256584525108e-07, -5.304464139044285e-07], [-5.0900325732072815e-08, -1.2456439435482025e-08, -1.0002615908888401e-06]]" position="_JSON [[-2.833131029540474e-08, 2.886517761099255, 7.0048079227051305], [2.4997977183313105, 1.4432588589007445, 9.80673095729487], [0.0, 0.0, 12.60865416], [-2.833131029540474e-08, 2.886517761099255, 15.41057736270513], [2.4997977183313105, 1.4432588589007445, 1.4009615172948704], [0.0, 0.0, 4.20288472], [0.6471942688787616, 4.007491082818818, 7.0048079227051305], [-1.2943885253485337, 2.886517761099255, 7.0048079227051305], [1.8526034435302285, 2.5642322239180735, 9.80673095729487], [1.8526034211212377, 0.3222855371811816, 9.80673095729487], [3.7941862153485335, 1.4432588589007445, 9.80673095729487], [0.6471942464697716, 1.7655443960819261, 7.0048079227051305], [0.6471942722120954, 1.120973365017329, 12.60865416], [3.705206842986822, 0.0, 12.60865416], [-0.6471942781344152, 4.007491082818818, 15.41057736270513], [-0.6471942505474517, 1.7655443960819261, 15.41057736270513], [1.2943885186818667, 2.886517761099255, 15.41057736270513], [-1.8526034251989176, 3.20880325498267, 12.60865416], [3.146991940547452, 2.5642322239180735, 1.4009615172948704], [1.2054091713181327, 1.4432588589007445, 1.4009615172948704], [-0.6471942748010819, 1.120973365017329, 4.20288472], [1.8526034177879045, 3.20880325498267, 4.20288472], [1.2943885470131773, 0.0, 4.20288472], [3.146991968134415, 0.3222855371811816, 1.4009615172948704], [0.0, 0.0, 8.40576944], [2.4997977183313105, 1.4432588589007445, 5.60384623729487], [2.4997977183313105, 1.4432588589007445, 14.009615677294871], [-2.833131029540474e-08, 2.886517761099255, 11.20769264270513], [-2.833131029540474e-08, 2.886517761099255, 2.8019232027051295], [0.0, 0.0, 0.0]]" formula=CCaO3 symbol="_JSON [\"C\", \"C\", \"C\", \"C\", \"C\", \"C\", \"O\", \"O\", \"O\", \"O\", \"O\", \"O\", \"O\", \"O\", \"O\", \"O\", \"O\", \"O\", \"O\", \"O\", \"O\", \"O\", \"O\", \"O\", \"Ca\", \"Ca\", \"Ca\", \"Ca\", \"Ca\", \"Ca\"]" stress="0.0035226806066930294 -1.0645979653389759e-09 4.156026633950205e-09 -1.0645979653389759e-09 0.0035226766485720873 7.843732330314879e-10 4.156026633950205e-09 7.843732330314879e-10 -0.0031990096904337406" stress_voigt="0.0035226806066930294 0.0035226766485720873 -0.0031990096904337406 7.843732330314879e-10 4.156026633950205e-09 -1.0645979653389759e-09" volume=363.9215882981706 a=4.99959539 b=4.999595395631921 c=16.81153888 alpha=90.0 beta=90.0 gamma=120.00000002890131 pbc="T T T"
C       -0.00000003       2.88651776       7.00480792
C        2.49979772       1.44325886       9.80673096
C        0.00000000       0.00000000      12.60865416
C       -0.00000003       2.88651776      15.41057736
C        2.49979772       1.44325886       1.40096152
C        0.00000000       0.00000000       4.20288472
O        0.64719427       4.00749108       7.00480792
O       -1.29438853       2.88651776       7.00480792
O        1.85260344       2.56423222       9.80673096
O        1.85260342       0.32228554       9.80673096
O        3.79418622       1.44325886       9.80673096
O        0.64719425       1.76554440       7.00480792
O        0.64719427       1.12097337      12.60865416
O        3.70520684       0.00000000      12.60865416
O       -0.64719428       4.00749108      15.41057736
O       -0.64719425       1.76554440      15.41057736
O        1.29438852       2.88651776      15.41057736
O       -1.85260343       3.20880325      12.60865416
O        3.14699194       2.56423222       1.40096152
O        1.20540917       1.44325886       1.40096152
O       -0.64719427       1.12097337       4.20288472
O        1.85260342       3.20880325       4.20288472
O        1.29438855       0.00000000       4.20288472
O        3.14699197       0.32228554       1.40096152
Ca       0.00000000       0.00000000       8.40576944
Ca       2.49979772       1.44325886       5.60384624
Ca       2.49979772       1.44325886      14.00961568
Ca      -0.00000003       2.88651776      11.20769264
Ca      -0.00000003       2.88651776       2.80192320
Ca       0.00000000       0.00000000       0.00000000
30
Lattice="4.993881163955481 1.7183640506028666e-18 1.18249928239279e-17 -2.4969405819777397 4.324827951466047 2.4039705972013308e-17 3.966977238896579e-17 1.4467830434920033e-15 16.933418562706816" Properties=species:S:1:pos:R:3 init_sgn=167 task="unitcell optimization" ratio=#N/A sgn=167 opt=post opt_conv=T opt_steps=0 force_conv=T e_fr_energy=-231.89540100097656 e_0_energy=-231.89540100097656 force="_JSON [[1.510617961422189e-39, 6.359846710559279e-24, 2.9181241852715553e-25], [-1.1015577949859308e-23, 6.359846710559279e-24, -2.18859301569415e-25], [1.835929592571476e-24, 6.359846710559279e-24, 9.970257181059587e-25], [1.4687436740571807e-23, -6.359846710559279e-24, -1.0699787857598927e-24], [1.835929592571476e-24, 6.359846710559279e-24, 3.8908320826827185e-25], [1.2851507345215557e-23, -6.359846710559279e-24, -7.295310463178888e-26], [-1.0017641898230067e-06, -1.7351063661408261e-06, -1.8279628468466036e-23], [2.0035283796460135e-06, -5.6704449938380795e-24, 8.63497954249321e-24], [1.0017641898230067e-06, -1.7351063661408261e-06, -8.088316290114964e-24], [1.0017641898230067e-06, 1.7351063661408261e-06, 1.6723295832608175e-23], [-2.0035283796460135e-06, -7.049248427280478e-24, -4.7441471639876525e-24], [-1.0017641898230067e-06, 1.7351063661408261e-06, 6.531983654257103e-24], [-1.0017641898230067e-06, -1.7351063661408261e-06, -1.9641420116487343e-23], [2.0035283796460135e-06, 7.049248427280478e-24, 1.0774936719582543e-23], [1.0017641898230067e-06, -1.7351063661408261e-06, -1.1200982350691592e-23], [1.0017641898230067e-06, 1.7351063661408261e-06, 1.8279628468466036e-23], [-2.0035283796460135e-06, -7.049248427280478e-24, -1.0191312178351072e-23], [-1.0017641898230067e-06, 1.7351063661408261e-06, 6.531983654257103e-24], [-1.0017641898230067e-06, -1.7351063661408261e-06, -1.75014613616762e-23], [2.0035283796460135e-06, 1.976894263725994e-23, 1.5638476403853585e-23], [1.0017641898230067e-06, -1.7351063661408261e-06, -8.477399843509882e-24], [1.0017641898230067e-06, 1.7351063661408261e-06, 2.1781377293576676e-23], [-2.0035283796460135e-06, 5.6704449938380795e-24, -9.024062307027223e-24], [-1.0017641898230067e-06, 1.7351063661408261e-06, 8.866482608043895e-24], [7.888760045117758e-26, 9.937260485248873e-26, 6.2253313322923496e-24], [-7.292357208346348e-42, -2.659440277534211e-40, -3.1126656661461748e-24], [-2.8686401732822057e-25, 4.968630550773228e-25, 1.556332793630042e-23], [7.292357208346348e-42, 2.659440277534211e-40, 3.1126656661461748e-24], [1.4584714416692696e-41, 5.318894568053065e-40, 6.2253313322923496e-24], [1.1474559953571724e-25, 2.659846654088865e-40, 3.1126656661461748e-24]]" position="_JSON [[-2.496943660915142e-08, 2.8832186487268, 7.055591124239227], [2.496940557008362, 1.4416093315714507, 9.877827551357045], [-2.496940540401006e-08, 1.441609343074695e-08, 12.700063978474832], [-2.4969436589316576e-08, 2.8832186487268, 15.52230040559262], [2.496940557008362, 1.4416093315714507, 1.4111182700036327], [-2.4969405423845003e-08, 1.4416093372727903e-08, 4.233354697121416], [0.6460465397272971, 4.002204122836611, 7.055591124239227], [-1.292093154363268, 2.8832186487268, 7.055591124239227], [1.850893992311326, 2.5605948056817374, 9.877827551357045], [1.8508939923114769, 0.322623857461152, 9.877827551357045], [3.789033686402043, 1.4416093315714509, 9.877827551357045], [0.6460465397273732, 1.7642331746165043, 7.055591124239227], [0.6460465397273724, 1.1189854885263955, 12.700063978474832], [3.701788009592355, 1.4416093432020702e-08, 12.700063978474832], [-0.6460465896664119, 4.00220412283661, 15.52230040559262], [-0.6460465896663362, 1.764233174616504, 15.52230040559262], [1.2920931044241524, 2.8832186487268, 15.52230040559262], [-1.8508940422504354, 3.205842491771859, 12.700063978474832], [3.1429871217051564, 2.5605948056817383, 1.4111182700036327], [1.2048474276146164, 1.4416093315714507, 1.4111182700036327], [-0.6460465896663367, 1.1189854885263948, 4.233354697121416], [1.8508939923113263, 3.205842491771859, 4.233354697121416], [1.292093104424303, 1.4416093594963358e-08, 4.233354697121416], [3.1429871217051573, 0.3226238574611525, 1.4111182700036327], [-2.4969405857509107e-08, 1.4416092958155811e-08, 8.466709337798106], [2.496940557008362, 1.4416093315714509, 5.644472910680351], [2.4969405570083616, 1.4416093315714504, 14.111182192033745], [-2.4969436599233998e-08, 2.8832186487268, 11.288945764915981], [-2.4969437062650514e-08, 2.8832186487268, 2.822236483562524], [-2.4969405433762337e-08, 1.4416093565509212e-08, 5.644472926141043e-08]]" formula=CCaO3 symbol="_JSON [\"C\", \"C\", \"C\", \"C\", \"C\", \"C\", \"O\", \"O\", \"O\", \"O\", \"O\", \"O\", \"O\", \"O\", \"O\", \"O\", \"O\", \"O\", \"O\", \"O\", \"O\", \"O\", \"O\", \"O\", \"Ca\", \"Ca\", \"Ca\", \"Ca\", \"Ca\", \"Ca\"]" stress="1.7080071756936377e-07 2.717587006529849e-23 -5.620332289289553e-23 2.717587006529849e-23 1.7080073178021848e-07 -1.7567548657327633e-22 -5.620332289289553e-23 -1.7567548657327633e-22 -3.0705015774401545e-07" stress_voigt="1.7080071756936377e-07 1.7080073178021848e-07 -3.0705015774401545e-07 -1.7567548657327633e-22 -5.620332289289553e-23 2.717587006529849e-23" volume=365.72250198448717 a=4.993881163955482 b=4.993881163955481 c=16.93341856270682 alpha=90.0 beta=90.0 gamma=119.99999999999999 pbc="T T T"
C       -0.00000002       2.88321865       7.05559112
C        2.49694056       1.44160933       9.87782755
C       -0.00000002       0.00000001      12.70006398
C       -0.00000002       2.88321865      15.52230041
C        2.49694056       1.44160933       1.41111827
C       -0.00000002       0.00000001       4.23335470
O        0.64604654       4.00220412       7.05559112
O       -1.29209315       2.88321865       7.05559112
O        1.85089399       2.56059481       9.87782755
O        1.85089399       0.32262386       9.87782755
O        3.78903369       1.44160933       9.87782755
O        0.64604654       1.76423317       7.05559112
O        0.64604654       1.11898549      12.70006398
O        3.70178801       0.00000001      12.70006398
O       -0.64604659       4.00220412      15.52230041
O       -0.64604659       1.76423317      15.52230041
O        1.29209310       2.88321865      15.52230041
O       -1.85089404       3.20584249      12.70006398
O        3.14298712       2.56059481       1.41111827
O        1.20484743       1.44160933       1.41111827
O       -0.64604659       1.11898549       4.23335470
O        1.85089399       3.20584249       4.23335470
O        1.29209310       0.00000001       4.23335470
O        3.14298712       0.32262386       1.41111827
Ca      -0.00000002       0.00000001       8.46670934
Ca       2.49694056       1.44160933       5.64447291
Ca       2.49694056       1.44160933      14.11118219
Ca      -0.00000002       2.88321865      11.28894576
Ca      -0.00000002       2.88321865       2.82223648
Ca      -0.00000002       0.00000001       0.00000006
