C  O  Ca
 1.0000000000000000
     4.8154504476885780   -0.0000000000000000   -0.0000000000000000
    -2.4077252238442890    4.1703024183634554   -0.0000000000000000
    -0.0000000000000008    0.0000000000000006   16.3438585391729063
 C   O   Ca 
   6  18   6
Selective dynamics
Cartesian
 -0.0000000240772975  2.7802016261433309  6.8099411124682350   T   T   T
  2.4077251997669915  1.3901008200221789  9.5339175356637185   T   T   T
 -0.0000000240772975  0.0000000139010270 12.2578939588592029   T   T   T
 -0.0000000240772975  2.7802016261433309 14.9818703820546872   T   T   T
  2.4077251997669915  1.3901008200221789  1.3619882660772662   T   T   T
 -0.0000000240772975  0.0000000139010270  4.0859646892727497   T   T   T
  0.6394094898900466  3.8876913911776940  6.8099411124682350   T   T   T
 -1.2788190520119864  2.7802016261433309  6.8099411124682350   T   T   T
  1.7683156857996469  2.4975905850565412  9.5339175356637185   T   T   T
  1.7683156857996476  0.2826110549878169  9.5339175356637185   T   T   T
  3.6865442277016811  1.3901008200221792  9.5339175356637185   T   T   T
  0.6394094898900471  1.6727118611089682  6.8099411124682350   T   T   T
  0.6394094898900466  1.1074897789353901 12.2578939588592029   T   T   T
  3.5366313956765913  0.0000000139010270 12.2578939588592029   T   T   T
 -0.6394095380446421  3.8876913911776931 14.9818703820546872   T   T   T
 -0.6394095380446414  1.6727118611089682 14.9818703820546872   T   T   T
  1.2788190038573917  2.7802016261433309 14.9818703820546872   T   T   T
 -1.7683157339542419  3.0628126672301201 12.2578939588592029   T   T   T
  3.0471347137343363  2.4975905850565421  1.3619882660772662   T   T   T
  1.1289061718323026  1.3901008200221789  1.3619882660772662   T   T   T
 -0.6394095380446421  1.1074897789353892  4.0859646892727497   T   T   T
  1.7683156857996474  3.0628126672301201  4.0859646892727497   T   T   T
  1.2788190038573917  0.0000000139010272  4.0859646892727497   T   T   T
  3.0471347137343368  0.2826110549878165  1.3619882660772662   T   T   T
 -0.0000000240772975  0.0000000139010279  8.1719293240659781   T   T   T
  2.4077251997669915  1.3901008200221792  5.4479529008704928   T   T   T
  2.4077251997669915  1.3901008200221794 13.6198821704569468   T   T   T
 -0.0000000240772975  2.7802016261433309 10.8959057472614624   T   T   T
 -0.0000000240772975  2.7802016261433313  2.7239764776750093   T   T   T
 -0.0000000240772975  0.0000000139010272  0.0000000544795240   T   T   T
