C  O  Ca
 1.0000000000000000
     5.2165366840154208   -0.0000000000000000    0.0000000000000000
    -2.6082683420077104    4.5176532881307905    0.0000000000000000
    -0.0000000000000004    0.0000000000000002   17.6586497369976314
 C   O   Ca 
   6  18   6
Selective dynamics
Cartesian
 -0.0000000260827282  3.0117688738127022  7.3577707826111647   T   T   T
  2.6082683159249691  1.5058844444357724 10.3008790721107708   T   T   T
 -0.0000000260827182  0.0000000150588426 13.2439873616103760   T   T   T
 -0.0000000260827282  3.0117688738127022 16.1870956511099813   T   T   T
  2.6082683159249691  1.5058844444357724  1.4715542036119542   T   T   T
 -0.0000000260827182  0.0000000150588426  4.4146624931115603   T   T   T
  0.6499627044656748  4.1375373461487479  7.3577707826111647   T   T   T
 -1.2999254871795389  3.0117688738127022  7.3577707826111647   T   T   T
  1.9583055853765585  2.6316529167718188 10.3008790721107708   T   T   T
  1.9583055853765703  0.3801159720997256 10.3008790721107708   T   T   T
  3.9081937770217898  1.5058844444357722 10.3008790721107708   T   T   T
  0.6499627044656806  1.8860004014766554  7.3577707826111647   T   T   T
  0.6499627044656807  1.1257684873948894 13.2439873616103760   T   T   T
  3.9166111968358592  0.0000000150588426 13.2439873616103760   T   T   T
 -0.6499627566311348  4.1375373461487488 16.1870956511099813   T   T   T
 -0.6499627566311288  1.8860004014766554 16.1870956511099813   T   T   T
  1.2999254350140801  3.0117688738127022 16.1870956511099813   T   T   T
 -1.9583056375420185  3.3918848308535869 13.2439873616103760   T   T   T
  3.2582310464733801  2.6316529167718183  1.4715542036119542   T   T   T
  1.3083428548281599  1.5058844444357724  1.4715542036119542   T   T   T
 -0.6499627566311290  1.1257684873948901  4.4146624931115603   T   T   T
  1.9583055853765587  3.3918848308535869  4.4146624931115603   T   T   T
  1.2999254350140919  0.0000000150588424  4.4146624931115603   T   T   T
  3.2582310464733801  0.3801159720997259  1.4715542036119542   T   T   T
 -0.0000000260827187  0.0000000150588422  8.8293249273609682   T   T   T
  2.6082683159249691  1.5058844444357726  5.8862166378613621   T   T   T
  2.6082683159249687  1.5058844444357722 14.7155415063601787   T   T   T
 -0.0000000260827282  3.0117688738127022 11.7724332168605734   T   T   T
 -0.0000000260827287  3.0117688738127022  2.9431083483617577   T   T   T
 -0.0000000260827182  0.0000000150588428  0.0000000588621516   T   T   T
