Si
 1.0000000000000000
     5.4649809622547574    0.0000000000000000    0.0000000000000000
     0.0000000000000000    5.4649809622547574    0.0000000000000000
     0.0000000000000000    0.0000000000000000    5.4649809622547574
 Si 
   8
Selective dynamics
Cartesian
  1.3662452441862056  4.0987357225654666  1.3662452441862056   T   T   T
  0.0000000036225163  0.0000000008743988  2.7324904847498948   T   T   T
  1.3662452441862056  1.3662452414380879  4.0987357253135848   T   T   T
  0.0000000036225163  2.7324904820017775  0.0000000036225161   T   T   T
  4.0987357253135848  4.0987357225654666  4.0987357253135848   T   T   T
  2.7324904847498948  0.0000000008743988  0.0000000036225161   T   T   T
  4.0987357253135848  1.3662452414380879  1.3662452441862056   T   T   T
  2.7324904847498948  2.7324904820017775  2.7324904847498948   T   T   T
Cartesian
  0.0000000000000000  0.0000000000000000  0.0000000000000000
  0.0000000000000000  0.0000000000000000  0.0000000000000000
  0.0000000000000000  0.0000000000000000  0.0000000000000000
  0.0000000000000000  0.0000000000000000  0.0000000000000000
  0.0000000000000000  0.0000000000000000  0.0000000000000000
  0.0000000000000000  0.0000000000000000  0.0000000000000000
  0.0000000000000000  0.0000000000000000  0.0000000000000000
  0.0000000000000000  0.0000000000000000  0.0000000000000000
