Si
 1.0000000000000000
     5.2463817237645669    0.0000000000000000    0.0000000000000000
     0.0000000000000000    5.2463817237645669    0.0000000000000000
     0.0000000000000000    0.0000000000000000    5.2463817237645669
 Si 
   8
Selective dynamics
Cartesian
  1.3115954344187573  3.9347862936628477  1.3115954344187570   T   T   T
  0.0000000034776158  0.0000000008394232  2.6231908653598985   T   T   T
  1.3115954344187573  1.3115954317805647  3.9347862963010400   T   T   T
  0.0000000034776158  2.6231908627217062  0.0000000034776155   T   T   T
  3.9347862963010405  3.9347862936628477  3.9347862963010400   T   T   T
  2.6231908653598985  0.0000000008394232  0.0000000034776155   T   T   T
  3.9347862963010405  1.3115954317805647  1.3115954344187570   T   T   T
  2.6231908653598985  2.6231908627217062  2.6231908653598985   T   T   T
Cartesian
  0.0000000000000000  0.0000000000000000  0.0000000000000000
  0.0000000000000000  0.0000000000000000  0.0000000000000000
  0.0000000000000000  0.0000000000000000  0.0000000000000000
  0.0000000000000000  0.0000000000000000  0.0000000000000000
  0.0000000000000000  0.0000000000000000  0.0000000000000000
  0.0000000000000000  0.0000000000000000  0.0000000000000000
  0.0000000000000000  0.0000000000000000  0.0000000000000000
  0.0000000000000000  0.0000000000000000  0.0000000000000000
