C  O  Ca
 1.0000000000000000
     5.2668989271593789   -0.0000000000000000    0.0000000000000000
    -2.6334494635796895    4.5612682700850291   -0.0000000000000000
     0.0000000000000010    0.0000000000000007   17.8760952772203652
 C   O   Ca 
   6  18   6
Selective dynamics
Cartesian
 -0.0000000263345430  3.0408455285942693  7.4483730917621331   T   T   T
  2.6334494372451474  1.5204227718992596 10.4277223046321943   T   T   T
 -0.0000000263345430  0.0000000152042499 13.4070715175022546   T   T   T
 -0.0000000263345425  3.0408455285942693 16.3864207303723148   T   T   T
  2.6334494372451469  1.5204227718992596  1.4896746660220117   T   T   T
 -0.0000000263345425  0.0000000152042499  4.4690238788920729   T   T   T
  0.6509429401840165  4.1683118194340194  7.4483730917621331   T   T   T
 -1.3018859593716605  3.0408455285942693  7.4483730917621331   T   T   T
  1.9825064707265916  2.6478890627390168 10.4277223046321943   T   T   T
  1.9825064707265916  0.3929564810595084 10.4277223046321943   T   T   T
  3.9353353702822731  1.5204227718992593 10.4277223046321943   T   T   T
  0.6509429401840161  1.9133792377545220  7.4483730917621331   T   T   T
  0.6509429401840167  1.1274663060440004 13.4070715175022546   T   T   T
  3.9650129677877262  0.0000000152042499 13.4070715175022546   T   T   T
 -0.6509429928531016  4.1683118194340194 16.3864207303723148   T   T   T
 -0.6509429928531016  1.9133792377545218 16.3864207303723148   T   T   T
  1.3018859067025745  3.0408455285942693 16.3864207303723148   T   T   T
 -1.9825065233956771  3.4338019944495288 13.4070715175022546   T   T   T
  3.2843924037637056  2.6478890627390168  1.4896746660220117   T   T   T
  1.3315635042080296  1.5204227718992596  1.4896746660220117   T   T   T
 -0.6509429928531016  1.1274663060440007  4.4690238788920729   T   T   T
  1.9825064707265916  3.4338019944495288  4.4690238788920729   T   T   T
  1.3018859067025748  0.0000000152042496  4.4690238788920729   T   T   T
  3.2843924037637051  0.3929564810595088  1.4896746660220117   T   T   T
 -0.0000000263345430  0.0000000152042494  8.9380476981971633   T   T   T
  2.6334494372451474  1.5204227718992598  5.9586984853271030   T   T   T
  2.6334494372451469  1.5204227718992593 14.8967461239372838   T   T   T
 -0.0000000263345425  3.0408455285942693 11.9173969110672253   T   T   T
 -0.0000000263345430  3.0408455285942693  2.9793492724570418   T   T   T
 -0.0000000263345425  0.0000000152042501  0.0000000595869816   T   T   T
