C  O  Ca
 1.0000000000000000
    10.5333913811849857    0.0000000000000000    0.0000000000000000
    -5.2666956905924920    9.1221845241102528    0.0000000000000000
     0.0000000000000009    0.0000000000000007   17.8284444460072287
 C   O   Ca 
  24  72  24
Cartesian
  0.0050866946137476  3.0407281899070568  7.4371281819571280
  5.2666956642589859  3.0407281899070568  7.4285185785978110
 -2.6333478716297529  7.6018204519621833  7.4285185785978110
  2.6333478189627400  7.6018204519621833  7.4285185785978110
  2.6333478189627342  1.5203641025553480 10.3999259862656839
  7.9000435095552275  1.5203641025553480 10.3999259862656839
 -0.0000000263335115  6.0814563646104736 10.3999259862656839
  5.2666956642589815  6.0814563646104736 10.3999259862656839
 10.5333913548514726  0.0000000152036392 13.3713333939335506
  5.2666956642589806  0.0000000152036392 13.3713333939335506
  7.9000435095552293  4.5610922772587665 13.3713333939335506
  2.6333478189627342  4.5610922772587665 13.3713333939335506
 -0.0000000263335067  3.0407281899070568 16.3427408016014262
  5.2666956642589868  3.0407281899070568 16.3427408016014262
 -2.6333478716297525  7.6018204519621841 16.3427408016014262
  2.6333478189627404  7.6018204519621841 16.3427408016014262
  2.6333478189627342  1.5203641025553480  1.4857037632620711
  7.9000435095552257  1.5203641025553480  1.4857037632620711
 -0.0000000263335115  6.0814563646104736  1.4857037632620711
  5.2666956642589806  6.0814563646104736  1.4857037632620711
 10.5333913548514726  0.0000000152036392  4.4571111709299425
  5.2666956642589806  0.0000000152036392  4.4571111709299425
  7.9000435095552266  4.5610922772587656  4.4571111709299425
  2.6333478189627355  4.5610922772587656  4.4571111709299425
  0.6508715468298562  4.1680708238282778  7.4285185785978110
  5.9175672374223502  4.1680708238282778  7.4285185785978110
 -1.9824762984663897  8.7291630858834051  7.4285185785978110
  3.2842193921261043  8.7291630858834051  7.4285185785978110
 -1.3017431726602360  3.0407281899070564  7.4285185785978110
  3.9649525179322560  3.0407281899070564  7.4285185785978110
 -3.9350910179564824  7.6018204519621824  7.4285185785978110
  1.3316046726360100  7.6018204519621824  7.4285185785978110
  1.9824762457993730  2.6477067364765747 10.3999259862656839
  7.2491719363918659  2.6477067364765747 10.3999259862656839
 -0.6508715994968730  7.2087989985316998 10.3999259862656839
  4.6158240910956199  7.2087989985316998 10.3999259862656839
  1.9824762457993719  0.3930214686341217 10.3999259862656839
  7.2491719363918667  0.3930214686341217 10.3999259862656839
 -0.6508715994968737  4.9541137306892482 10.3999259862656839
  4.6158240910956208  4.9541137306892482 10.3999259862656839
  3.9350909652894570  1.5203641025553483 10.3999259862656839
  9.2017866558819499  1.5203641025553483 10.3999259862656839
  1.3017431199932112  6.0814563646104736 10.3999259862656839
  6.5684388105857048  6.0814563646104736 10.3999259862656839
  0.6508715468298564  1.9133855559858322  7.4285185785978110
  5.9175672374223494  1.9133855559858322  7.4285185785978110
 -1.9824762984663895  6.4744778180409588  7.4285185785978110
  3.2842193921261043  6.4744778180409588  7.4285185785978110
  0.6508715468298492  1.1273426491248648 13.3713333939335506
  5.9175672374223423  1.1273426491248648 13.3713333939335506
 -1.9824762984663966  5.6884349111799919 13.3713333939335506
  3.2842193921260976  5.6884349111799919 13.3713333939335506
  3.9649525179322573  0.0000000152036388 13.3713333939335506
  9.2316482085247475  0.0000000152036388 13.3713333939335506
  1.3316046726360113  4.5610922772587656 13.3713333939335506
  6.5983003632285042  4.5610922772587656 13.3713333939335506
 -0.6508715994968680  4.1680708238282786 16.3427408016014262
  4.6158240910956243  4.1680708238282786 16.3427408016014262
 -3.2842194447931137  8.7291630858834033 16.3427408016014262
  1.9824762457993785  8.7291630858834033 16.3427408016014262
 -0.6508715994968671  1.9133855559858308 16.3427408016014262
  4.6158240910956270  1.9133855559858308 16.3427408016014262
 -3.2842194447931123  6.4744778180409570 16.3427408016014262
  1.9824762457993816  6.4744778180409570 16.3427408016014262
  1.3017431199932115  3.0407281899070568 16.3427408016014262
  6.5684388105857066  3.0407281899070568 16.3427408016014262
 -1.3316047253030343  7.6018204519621841 16.3427408016014262
  3.9350909652894601  7.6018204519621841 16.3427408016014262
  8.5509150827186033  3.4337496433375390 13.3713333939335506
  3.2842193921261096  3.4337496433375390 13.3713333939335506
  5.9175672374223574  7.9948419053926658 13.3713333939335506
  0.6508715468298634  7.9948419053926658 13.3713333939335506
  3.2842193921260958  2.6477067364765756  1.4857037632620711
  8.5509150827185874  2.6477067364765756  1.4857037632620711
  0.6508715468298499  7.2087989985317025  1.4857037632620711
  5.9175672374223414  7.2087989985317025  1.4857037632620711
  1.3316046726360107  1.5203641025553476  1.4857037632620711
  6.5983003632285042  1.5203641025553476  1.4857037632620711
 -1.3017431726602358  6.0814563646104736  1.4857037632620711
  3.9649525179322569  6.0814563646104736  1.4857037632620711
  9.8825197816881118  1.1273426491248639  4.4571111709299425
  4.6158240910956190  1.1273426491248639  4.4571111709299425
  7.2491719363918650  5.6884349111799910  4.4571111709299425
  1.9824762457993717  5.6884349111799910  4.4571111709299425
  1.9824762457993863  3.4337496433375381  4.4571111709299425
  7.2491719363918792  3.4337496433375381  4.4571111709299425
 -0.6508715994968599  7.9948419053926649  4.4571111709299425
  4.6158240910956332  7.9948419053926649  4.4571111709299425
  1.3017431199932115  0.0000000152036395  4.4571111709299425
  6.5684388105857039  0.0000000152036395  4.4571111709299425
 -1.3316047253030341  4.5610922772587656  4.4571111709299425
  3.9350909652894588  4.5610922772587656  4.4571111709299425
  3.2842193921260958  0.3930214686341224  1.4857037632620711
  8.5509150827185874  0.3930214686341224  1.4857037632620711
  0.6508715468298499  4.9541137306892491  1.4857037632620711
  5.9175672374223414  4.9541137306892491  1.4857037632620711
 10.5333913548514726  0.0000000152036392  8.9142222824317479
  5.2666956642589815  0.0000000152036392  8.9142222824317479
  7.9000435095552275  4.5610922772587656  8.9142222824317479
  2.6333478189627337  4.5610922772587656  8.9142222824317479
  2.6333478189627342  1.5203641025553483  5.9428148747638767
  7.9000435095552257  1.5203641025553483  5.9428148747638767
 -0.0000000263335118  6.0814563646104736  5.9428148747638767
  5.2666956642589806  6.0814563646104736  5.9428148747638767
  2.6333478189627337  1.5203641025553485 14.8570370977674848
  7.9000435095552275  1.5203641025553485 14.8570370977674848
 -0.0000000263335116  6.0814563646104736 14.8570370977674848
  5.2666956642589815  6.0814563646104736 14.8570370977674848
 -0.0000000263335067  3.0407281899070568 11.8856296900996181
  5.2666956642589868  3.0407281899070568 11.8856296900996181
 -2.6333478716297534  7.6018204519621850 11.8856296900996181
  2.6333478189627391  7.6018204519621850 11.8856296900996181
 -0.0000000263335067  3.0407281899070568  2.9714074670960064
  5.2666956642589868  3.0407281899070568  2.9714074670960064
 -2.6333478716297529  7.6018204519621833  2.9714074670960064
  2.6333478189627413  7.6018204519621833  2.9714074670960064
 10.5333913548514726  0.0000000152036395  0.0000000594281362
  5.2666956642589806  0.0000000152036395  0.0000000594281362
  7.9000435095552266  4.5610922772587656  0.0000000594281362
  2.6333478189627351  4.5610922772587656  0.0000000594281362
