C  O  Ca
 1.0000000000000000
    10.1321193285684163    0.0000000000000000    0.0000000000000000
    -5.0660596642842082    8.7746727327155778    0.0000000000000000
    -0.0000000000000004    0.0000000000000002   17.1492656099688574
 C   O   Ca 
  24  72  24
Cartesian
 -0.0000000253303386  2.9248909255296449  7.1455273946512285
  5.0660596389538686  2.9248909255296449  7.1455273946512285
 -2.5330298574724419  7.3122272918874325  7.1455273946512285
  2.5330298068117654  7.3122272918874325  7.1455273946512285
  2.5330298068117716  1.4624454700770488 10.0037383296460387
  7.5990894710959793  1.4624454700770488 10.0037383296460387
 -0.0000000253303326  5.8497818364348380 10.0037383296460387
  5.0660596389538730  5.8497818364348380 10.0037383296460387
 10.1321193032380847  0.0000000146244519 12.8619492646408471
  5.0660596389538766  0.0000000146244519 12.8619492646408471
  7.5990894710959802  4.3873363809822408 12.8619492646408471
  2.5330298068117707  4.3873363809822408 12.8619492646408471
 -0.0000000253303381  2.9248909255296449 15.7201601996356572
  5.0660596389538686  2.9248909255296449 15.7201601996356572
 -2.5330298574724424  7.3122272918874325 15.7201601996356572
  2.5330298068117649  7.3122272918874325 15.7201601996356572
  2.5330298068117720  1.4624454700770484  1.4291055246616100
  7.5990894710959793  1.4624454700770484  1.4291055246616100
 -0.0000000253303324  5.8497818364348380  1.4291055246616100
  5.0660596389538730  5.8497818364348380  1.4291055246616100
 10.1321193032380847  0.0000000146244519  4.2873164596564193
  5.0660596389538766  0.0000000146244519  4.2873164596564193
  7.5990894710959802  4.3873363809822408  4.2873164596564193
  2.5330298068117711  4.3873363809822408  4.2873164596564193
  0.6567789795357428  4.0451450232265422  7.1455273946512285
  5.7128386438199517  4.0451450232265422  7.1455273946512285
 -1.8862508526063613  8.4324813895843302  7.1455273946512285
  3.1798088116778485  8.4324813895843302  7.1455273946512285
 -1.2935580350625056  2.9248909255296449  7.1455273946512285
  3.7725016292217028  2.9248909255296449  7.1455273946512285
 -3.8265878672046090  7.3122272918874325  7.1455273946512285
  1.2394717970795990  7.3122272918874325  7.1455273946512285
  1.8862508019456823  2.5826995677739419 10.0037383296460387
  6.9523104662298891  2.5826995677739419 10.0037383296460387
 -0.6467790301964225  6.9700359341317322 10.0037383296460387
  4.4192806340877846  6.9700359341317322 10.0037383296460387
  1.8862508019456892  0.3421913723801536 10.0037383296460387
  6.9523104662298980  0.3421913723801536 10.0037383296460387
 -0.6467790301964149  4.7295277387379429 10.0037383296460387
  4.4192806340877935  4.7295277387379429 10.0037383296460387
  3.8265878165439382  1.4624454700770491 10.0037383296460387
  8.8926474808281490  1.4624454700770491 10.0037383296460387
  1.2935579844018346  5.8497818364348380 10.0037383296460387
  6.3596176486860445  5.8497818364348380 10.0037383296460387
  0.6467789795357469  1.8046368278327516  7.1455273946512285
  5.7128386438199552  1.8046368278327516  7.1455273946512285
 -1.8862508526063571  6.1919731941905392  7.1455273946512285
  3.1798088116778516  6.1919731941905392  7.1455273946512285
  0.6467789795357467  1.1202541123213459 12.8619492646408471
  5.7128386438199552  1.1202541123213459 12.8619492646408471
 -1.8862508526063577  5.5075904786791350 12.8619492646408471
  3.1798088116778493  5.5075904786791350 12.8619492646408471
  3.7725016292217086  0.0000000146244519 12.8619492646408471
  8.8385612935059186  0.0000000146244519 12.8619492646408471
  1.2394717970796056  4.3873363809822408 12.8619492646408471
  6.3055314613638140  4.3873363809822408 12.8619492646408471
 -0.6467790301964221  4.0451450232265413 15.7201601996356572
  4.4192806340877855  4.0451450232265413 15.7201601996356572
 -3.1798088623385263  8.4324813895843302 15.7201601996356572
  1.8862508019456801  8.4324813895843302 15.7201601996356572
 -0.6467790301964178  1.8046368278327498 15.7201601996356572
  4.4192806340877908  1.8046368278327498 15.7201601996356572
 -3.1798088623385219  6.1919731941905374 15.7201601996356572
  1.8862508019456861  6.1919731941905374 15.7201601996356572
  1.2935579844018259  2.9248909255296449 15.7201601996356572
  6.3596176486860347  2.9248909255296449 15.7201601996356572
 -1.2394718477402775  7.3122272918874325 15.7201601996356572
  3.8265878165439311  7.3122272918874325 15.7201601996356572
  8.2458684759620535  3.2670822832853470 12.8619492646408471
  3.1798088116778467  3.2670822832853470 12.8619492646408471
  5.7128386438199525  7.6544186496431355 12.8619492646408471
  0.6467789795357429  7.6544186496431355 12.8619492646408471
  3.1798088116778551  2.5826995677739437  1.4291055246616100
  8.2458684759620660  2.5826995677739437  1.4291055246616100
  0.6467789795357515  6.9700359341317322  1.4291055246616100
  5.7128386438199614  6.9700359341317322  1.4291055246616100
  1.2394717970796059  1.4624454700770484  1.4291055246616100
  6.3055314613638140  1.4624454700770484  1.4291055246616100
 -1.2935580350624984  5.8497818364348380  1.4291055246616100
  3.7725016292217086  5.8497818364348380  1.4291055246616100
  9.4853402983719981  1.1202541123213450  4.2873164596564193
  4.4192806340877890  1.1202541123213450  4.2873164596564193
  6.9523104662298945  5.5075904786791341  4.2873164596564193
  1.8862508019456850  5.5075904786791341  4.2873164596564193
  1.8862508019456816  3.2670822832853457  4.2873164596564193
  6.9523104662298891  3.2670822832853457  4.2873164596564193
 -0.6467790301964225  7.6544186496431346  4.2873164596564193
  4.4192806340877846  7.6544186496431346  4.2873164596564193
  1.2935579844018339  0.0000000146244521  4.2873164596564193
  6.3596176486860410  0.0000000146244521  4.2873164596564193
 -1.2394718477402702  4.3873363809822408  4.2873164596564193
  3.8265878165439373  4.3873363809822408  4.2873164596564193
  3.1798088116778565  0.3421913723801549  1.4291055246616100
  8.2458684759620642  0.3421913723801549  1.4291055246616100
  0.6467789795357526  4.7295277387379437  1.4291055246616100
  5.7128386438199596  4.7295277387379437  1.4291055246616100
 10.1321193032380847  0.0000000146244519  8.5746328621486327
  5.0660596389538757  0.0000000146244519  8.5746328621486327
  7.5990894710959802  4.3873363809822408  8.5746328621486327
  2.5330298068117711  4.3873363809822408  8.5746328621486327
  2.5330298068117720  1.4624454700770486  5.7164219271538244
  7.5990894710959793  1.4624454700770486  5.7164219271538244
 -0.0000000253303325  5.8497818364348380  5.7164219271538244
  5.0660596389538730  5.8497818364348380  5.7164219271538244
  2.5330298068117703  1.4624454700770484 14.2910547321382513
  7.5990894710959793  1.4624454700770484 14.2910547321382513
 -0.0000000253303335  5.8497818364348371 14.2910547321382513
  5.0660596389538757  5.8497818364348371 14.2910547321382513
 -0.0000000253303380  2.9248909255296449 11.4328437971434429
  5.0660596389538686  2.9248909255296449 11.4328437971434429
 -2.5330298574724424  7.3122272918874325 11.4328437971434429
  2.5330298068117649  7.3122272918874325 11.4328437971434429
 -0.0000000253303385  2.9248909255296449  2.8582109921590142
  5.0660596389538686  2.9248909255296449  2.8582109921590142
 -2.5330298574724419  7.3122272918874325  2.8582109921590142
  2.5330298068117654  7.3122272918874325  2.8582109921590142
 10.1321193032380847  0.0000000146244521  0.0000000571642058
  5.0660596389538748  0.0000000146244521  0.0000000571642058
  7.5990894710959802  4.3873363809822408  0.0000000571642058
  2.5330298068117711  4.3873363809822408  0.0000000571642058
