C  O  Ca
 1.0000000000000000
     9.6309008953771560    0.0000000000000000    0.0000000000000000
    -4.8154504476885780    8.3406048367269108    0.0000000000000000
    -0.0000000000000008    0.0000000000000006   16.3438585391729063
 C   O   Ca 
  24  72  24
Cartesian
 -0.0050768292032339  2.7802016261433318  6.8013256583471060
  4.8154504236112805  2.7802016261433318  6.8099411124682332
 -2.4077252479215865  6.9505040445067863  6.8099411124682332
  2.4077251997669915  6.9505040445067863  6.8099411124682332
  2.4077251997669906  1.3901008200221789  9.5339175356637185
  7.2231756474555686  1.3901008200221789  9.5339175356637185
 -0.0000000240772981  5.5604032383856339  9.5339175356637185
  4.8154504236112796  5.5604032383856339  9.5339175356637185
  9.6309008712998594  0.0000000139010270 12.2578939588591993
  4.8154504236112805  0.0000000139010270 12.2578939588591993
  7.2231756474555686  4.1703024322644842 12.2578939588591993
  2.4077251997669920  4.1703024322644842 12.2578939588591993
 -0.0000000240772978  2.7802016261433318 14.9818703820546872
  4.8154504236112787  2.7802016261433318 14.9818703820546872
 -2.4077252479215860  6.9505040445067872 14.9818703820546872
  2.4077251997669911  6.9505040445067872 14.9818703820546872
  2.4077251997669915  1.3901008200221789  1.3619882660772662
  7.2231756474555695  1.3901008200221789  1.3619882660772662
 -0.0000000240772978  5.5604032383856348  1.3619882660772662
  4.8154504236112805  5.5604032383856348  1.3619882660772662
  9.6309008712998594  0.0000000139010270  4.0859646892727497
  4.8154504236112805  0.0000000139010270  4.0859646892727497
  7.2231756474555704  4.1703024322644824  4.0859646892727497
  2.4077251997669915  4.1703024322644824  4.0859646892727497
  0.6394094898900460  3.8876913911776940  6.8099411124682332
  5.4548599375786253  3.8876913911776940  6.8099411124682332
 -1.7683157339542430  8.0579938095411485  6.8099411124682332
  3.0471347137343359  8.0579938095411485  6.8099411124682332
 -1.2788190520119864  2.7802016261433318  6.8099411124682332
  3.5366313956765913  2.7802016261433318  6.8099411124682332
 -3.6865442758562756  6.9505040445067863  6.8099411124682332
  1.1289061718323026  6.9505040445067863  6.8099411124682332
  1.7683156857996460  2.4975905850565412  9.5339175356637185
  6.5837661334882238  2.4975905850565412  9.5339175356637185
 -0.6394095380446437  6.6678930034199979  9.5339175356637185
  4.1760409096439339  6.6678930034199979  9.5339175356637185
  1.7683156857996478  0.2826110549878168  9.5339175356637185
  6.5837661334882256  0.2826110549878168  9.5339175356637185
 -0.6394095380446408  4.4529134733512716  9.5339175356637185
  4.1760409096439357  4.4529134733512716  9.5339175356637185
  3.6865442277016807  1.3901008200221792  9.5339175356637185
  8.5019946753902591  1.3901008200221792  9.5339175356637185
  1.2788190038573919  5.5604032383856339  9.5339175356637185
  6.0942694515459674  5.5604032383856339  9.5339175356637185
  0.6394094898900471  1.6727118611089686  6.8099411124682332
  5.4548599375786235  1.6727118611089686  6.8099411124682332
 -1.7683157339542419  5.8430142794724231  6.8099411124682332
  3.0471347137343354  5.8430142794724231  6.8099411124682332
  0.6394094898900466  1.1074897789353901 12.2578939588591993
  5.4548599375786244  1.1074897789353901 12.2578939588591993
 -1.7683157339542428  5.2777921972988473 12.2578939588591993
  3.0471347137343359  5.2777921972988473 12.2578939588591993
  3.5366313956765922  0.0000000139010270 12.2578939588591993
  8.3520818433651698  0.0000000139010270 12.2578939588591993
  1.1289061718323024  4.1703024322644842 12.2578939588591993
  5.9443566195208790  4.1703024322644842 12.2578939588591993
 -0.6394095380446424  3.8876913911776931 14.9818703820546872
  4.1760409096439357  3.8876913911776931 14.9818703820546872
 -3.0471347618889313  8.0579938095411485 14.9818703820546872
  1.7683156857996456  8.0579938095411485 14.9818703820546872
 -0.6394095380446417  1.6727118611089686 14.9818703820546872
  4.1760409096439348  1.6727118611089686 14.9818703820546872
 -3.0471347618889304  5.8430142794724240 14.9818703820546872
  1.7683156857996474  5.8430142794724240 14.9818703820546872
  1.2788190038573910  2.7802016261433318 14.9818703820546872
  6.0942694515459683  2.7802016261433318 14.9818703820546872
 -1.1289062199868969  6.9505040445067872 14.9818703820546872
  3.6865442277016807  6.9505040445067872 14.9818703820546872
  7.8625851614229143  3.0628126672301201 12.2578939588591993
  3.0471347137343368  3.0628126672301201 12.2578939588591993
  5.4548599375786244  7.2331150855935773 12.2578939588591993
  0.6394094898900475  7.2331150855935773 12.2578939588591993
  3.0471347137343359  2.4975905850565421  1.3619882660772662
  7.8625851614229116  2.4975905850565421  1.3619882660772662
  0.6394094898900466  6.6678930034199979  1.3619882660772662
  5.4548599375786244  6.6678930034199979  1.3619882660772662
  1.1289061718323026  1.3901008200221789  1.3619882660772662
  5.9443566195208808  1.3901008200221789  1.3619882660772662
 -1.2788190520119864  5.5604032383856348  1.3619882660772662
  3.5366313956765913  5.5604032383856348  1.3619882660772662
  8.9914913573325155  1.1074897789353892  4.0859646892727497
  4.1760409096439366  1.1074897789353892  4.0859646892727497
  6.5837661334882256  5.2777921972988446  4.0859646892727497
  1.7683156857996474  5.2777921972988446  4.0859646892727497
  1.7683156857996474  3.0628126672301201  4.0859646892727497
  6.5837661334882256  3.0628126672301201  4.0859646892727497
 -0.6394095380446416  7.2331150855935755  4.0859646892727497
  4.1760409096439366  7.2331150855935755  4.0859646892727497
  1.2788190038573917  0.0000000139010272  4.0859646892727497
  6.0942694515459710  0.0000000139010272  4.0859646892727497
 -1.1289062199868973  4.1703024322644824  4.0859646892727497
  3.6865442277016820  4.1703024322644824  4.0859646892727497
  3.0471347137343359  0.2826110549878165  1.3619882660772662
  7.8625851614229143  0.2826110549878165  1.3619882660772662
  0.6394094898900473  4.4529134733512716  1.3619882660772662
  5.4548599375786253  4.4529134733512716  1.3619882660772662
  9.6309008712998594  0.0000000139010279  8.1719293240659745
  4.8154504236112805  0.0000000139010279  8.1719293240659745
  7.2231756474555695  4.1703024322644833  8.1719293240659745
  2.4077251997669902  4.1703024322644833  8.1719293240659745
  2.4077251997669906  1.3901008200221792  5.4479529008704928
  7.2231756474555695  1.3901008200221792  5.4479529008704928
 -0.0000000240772984  5.5604032383856348  5.4479529008704928
  4.8154504236112805  5.5604032383856348  5.4479529008704928
  2.4077251997669915  1.3901008200221794 13.6198821704569468
  7.2231756474555686  1.3901008200221794 13.6198821704569468
 -0.0000000240772971  5.5604032383856357 13.6198821704569468
  4.8154504236112796  5.5604032383856357 13.6198821704569468
 -0.0000000240772978  2.7802016261433318 10.8959057472614624
  4.8154504236112787  2.7802016261433318 10.8959057472614624
 -2.4077252479215865  6.9505040445067863 10.8959057472614624
  2.4077251997669915  6.9505040445067863 10.8959057472614624
 -0.0000000240772977  2.7802016261433318  2.7239764776750084
  4.8154504236112805  2.7802016261433318  2.7239764776750084
 -2.4077252479215865  6.9505040445067872  2.7239764776750084
  2.4077251997669911  6.9505040445067872  2.7239764776750084
  9.6309008712998594  0.0000000139010272  0.0000000544795240
  4.8154504236112805  0.0000000139010272  0.0000000544795240
  7.2231756474555704  4.1703024322644824  0.0000000544795240
  2.4077251997669915  4.1703024322644824  0.0000000544795240
