Si
 1.0000000000000000
     5.6835802007449479    0.0000000000000000    0.0000000000000000
     0.0000000000000000    5.6835802007449479    0.0000000000000000
     0.0000000000000000    0.0000000000000000    5.6835802007449479
 Si 
   8
Selective dynamics
Cartesian
  1.4208950539536540  4.2626851514680855  1.4208950539536538   T   T   T
  0.0000000037674170  0.0000000009093744  2.8417901041398910   T   T   T
  1.4208950539536540  1.4208950510956115  4.2626851543261282   T   T   T
  0.0000000037674170  2.8417901012818483  0.0000000037674170   T   T   T
  4.2626851543261282  4.2626851514680855  4.2626851543261282   T   T   T
  2.8417901041398910  0.0000000009093744  0.0000000037674170   T   T   T
  4.2626851543261282  1.4208950510956115  1.4208950539536538   T   T   T
  2.8417901041398910  2.8417901012818483  2.8417901041398910   T   T   T
Cartesian
  0.0000000000000000  0.0000000000000000  0.0000000000000000
  0.0000000000000000  0.0000000000000000  0.0000000000000000
  0.0000000000000000  0.0000000000000000  0.0000000000000000
  0.0000000000000000  0.0000000000000000  0.0000000000000000
  0.0000000000000000  0.0000000000000000  0.0000000000000000
  0.0000000000000000  0.0000000000000000  0.0000000000000000
  0.0000000000000000  0.0000000000000000  0.0000000000000000
  0.0000000000000000  0.0000000000000000  0.0000000000000000
