C  O  Ca
 1.0000000000000000
     4.9938811639554803    0.0000000000000000    0.0000000000000000
    -2.4969405819777402    4.3248279514660455    0.0000000000000000
    -0.0000000000000009    0.0000000000000001   16.9334185627068123
 C   O   Ca 
   6  18   6
Selective dynamics
Cartesian
 -0.0000000249694376  2.8832186487267983  7.0555911242392231   T   T   T
  2.4969405570083021  1.4416093315714495  9.8778275513570257   T   T   T
 -0.0000000249694376  0.0000000144161008 12.7000639784748266   T   T   T
 -0.0000000249694376  2.8832186487267983 15.5223004055926292   T   T   T
  2.4969405570083021  1.4416093315714495  1.4111182700036196   T   T   T
 -0.0000000249694376  0.0000000144161008  4.2333546971214222   T   T   T
  0.6460465376727732  4.0022041192783364  7.0555911242392231   T   T   T
 -1.2920931502538595  2.8832186487267983  7.0555911242392231   T   T   T
  1.8508939943660911  2.5605948021229890  9.8778275513570257   T   T   T
  1.8508939943660914  0.3226238610199105  9.8778275513570257   T   T   T
  3.7890336822927244  1.4416093315714493  9.8778275513570257   T   T   T
  0.6460465376727732  1.7642331781752596  7.0555911242392231   T   T   T
  0.6460465376727732  1.1189854849676391 12.7000639784748266   T   T   T
  3.7017880137016204  0.0000000144161008 12.7000639784748266   T   T   T
 -0.6460465876116489  4.0022041192783373 15.5223004055926292   T   T   T
 -0.6460465876116487  1.7642331781752596 15.5223004055926292   T   T   T
  1.2920931003149849  2.8832186487267983 15.5223004055926292   T   T   T
 -1.8508940443049668  3.2058424953306086 12.7000639784748266   T   T   T
  3.1429871196505133  2.5605948021229885  1.4111182700036196   T   T   T
  1.2048474317238802  1.4416093315714495  1.4111182700036196   T   T   T
 -0.6460465876116489  1.1189854849676397  4.2333546971214222   T   T   T
  1.8508939943660914  3.2058424953306086  4.2333546971214222   T   T   T
  1.2920931003149849  0.0000000144161005  4.2333546971214222   T   T   T
  3.1429871196505133  0.3226238610199107  1.4111182700036196   T   T   T
 -0.0000000249694376  0.0000000144161003  8.4667093377981253   T   T   T
  2.4969405570083021  1.4416093315714498  5.6444729106803226   T   T   T
  2.4969405570083021  1.4416093315714493 14.1111821920337288   T   T   T
 -0.0000000249694376  2.8832186487267983 11.2889457649159262   T   T   T
 -0.0000000249694376  2.8832186487267983  2.8222364835625218   T   T   T
 -0.0000000249694376  0.0000000144161010  0.0000000564447191   T   T   T
