C  O  Ca
 1.0000000000000000
    10.2324373417225587    0.0000000000000000    0.0000000000000000
    -5.1162186708612793    8.8615506805642443    0.0000000000000000
    -0.0000000000000009    0.0000000000000002   17.3190603189784476
 C   O   Ca 
  24  72  24
Cartesian
 -0.0000000255811279  2.9538502416239969  7.2162751906378748
  5.1162186452801528  2.9538502416239969  7.2162751906378748
 -2.5581093610117676  7.3846255819061177  7.2162751906378748
  2.5581093098495122  7.3846255819061177  7.2162751906378748
  2.5581093098495127  1.4769251281966231 10.1027852438009482
  7.6743279807107889  1.4769251281966231 10.1027852438009482
 -0.0000000255811277  5.9077004684787440 10.1027852438009482
  5.1162186452801501  5.9077004684787440 10.1027852438009482
 10.2324373161414304  0.0000000147692485 12.9892952969640199
  5.1162186452801519  0.0000000147692485 12.9892952969640199
  7.6743279807107907  4.4307753550513693 12.9892952969640199
  2.5581093098495122  4.4307753550513693 12.9892952969640199
 -0.0000000255811274  2.9538502416239969 15.8758053501270950
  5.1162186452801519  2.9538502416239969 15.8758053501270950
 -2.5581093610117667  7.3846255819061177 15.8758053501270950
  2.5581093098495127  7.3846255819061177 15.8758053501270950
  2.5581093098495122  1.4769251281966227  1.4432550843117267
  7.6743279807107898  1.4769251281966227  1.4432550843117267
 -0.0000000255811277  5.9077004684787440  1.4432550843117267
  5.1162186452801510  5.9077004684787440  1.4432550843117267
 10.2324373161414304  0.0000000147692485  4.3297651374748005
  5.1162186452801519  0.0000000147692485  4.3297651374748005
  7.6743279807107916  4.4307753550513693  4.3297651374748005
  2.5581093098495118  4.4307753550513693  4.3297651374748005
  0.6479121923616332  4.0760671219455009  7.2162751906378748
  5.7641308632229133  4.0760671219455009  7.2162751906378748
 -1.9101971430690061  8.5068424622276222  7.2162751906378748
  3.2060215277922746  8.5068424622276222  7.2162751906378748
 -1.2958244614666501  2.9538502416239965  7.2162751906378748
  3.8203942093946295  2.9538502416239965  7.2162751906378748
 -3.8539337968972895  7.3846255819061168  7.2162751906378748
  1.2622848739639907  7.3846255819061168  7.2162751906378748
  1.9101970919067666  2.5991420085181240 10.1027852438009482
  7.0264157627680444  2.5991420085181240 10.1027852438009482
 -0.6479122435238729  7.0299173488002458 10.1027852438009482
  4.4683064273374029  7.0299173488002458 10.1027852438009482
  1.9101970919067672  0.3547082478751197 10.1027852438009482
  7.0264157627680452  0.3547082478751197 10.1027852438009482
 -0.6479122435238726  4.7854835881572422 10.1027852438009482
  4.4683064273374073  4.7854835881572422 10.1027852438009482
  3.8539337457350666  1.4769251281966234 10.1027852438009482
  8.9701524165963491  1.4769251281966234 10.1027852438009482
  1.2958244103044267  5.9077004684787440 10.1027852438009482
  6.4120430811657068  5.9077004684787440 10.1027852438009482
  0.6479121923616339  1.8316333613024947  7.2162751906378748
  5.7641308632229151  1.8316333613024947  7.2162751906378748
 -1.9101971430690066  6.2624087015846177  7.2162751906378748
  3.2060215277922737  6.2624087015846177  7.2162751906378748
  0.6479121923616331  1.1222168950907505 12.9892952969640199
  5.7641308632229116  1.1222168950907505 12.9892952969640199
 -1.9101971430690070  5.5529922353728729 12.9892952969640199
  3.2060215277922719  5.5529922353728729 12.9892952969640199
  3.8203942093946615  0.0000000147692480 12.9892952969640199
  8.9366128802559412  0.0000000147692480 12.9892952969640199
  1.2622848739640218  4.4307753550513693 12.9892952969640199
  6.3785035448253016  4.4307753550513693 12.9892952969640199
 -0.6479122435238892  4.0760671219455009 15.8758053501270950
  4.4683064273373896  4.0760671219455009 15.8758053501270950
 -3.2060215789545286  8.5068424622276222 15.8758053501270950
  1.9101970919067512  8.5068424622276222 15.8758053501270950
 -0.6479122435238883  1.8316333613024944 15.8758053501270950
  4.4683064273373914  1.8316333613024944 15.8758053501270950
 -3.2060215789545281  6.2624087015846168 15.8758053501270950
  1.9101970919067517  6.2624087015846168 15.8758053501270950
  1.2958244103043930  2.9538502416239973 15.8758053501270950
  6.4120430811656730  2.9538502416239973 15.8758053501270950
 -1.2622849251262469  7.3846255819061204 15.8758053501270950
  3.8539337457350333  7.3846255819061204 15.8758053501270950
  8.3222401986535388  3.3085584747298697 12.9892952969640199
  3.2060215277922572  3.3085584747298697 12.9892952969640199
  5.7641308632228965  7.7393338150119924 12.9892952969640199
  0.6479121923616175  7.7393338150119924 12.9892952969640199
  3.2060215277923061  2.5991420085181245  1.4432550843117267
  8.3222401986535850  2.5991420085181245  1.4432550843117267
  0.6479121923616663  7.0299173488002467  1.4432550843117267
  5.7641308632229462  7.0299173488002467  1.4432550843117267
  1.2622848739639900  1.4769251281966222  1.4432550843117267
  6.3785035448252705  1.4769251281966222  1.4432550843117267
 -1.2958244614666494  5.9077004684787431  1.4432550843117267
  3.8203942093946304  5.9077004684787431  1.4432550843117267
  9.5845250981986698  1.1222168950907505  4.3297651374748005
  4.4683064273373905  1.1222168950907505  4.3297651374748005
  7.0264157627680293  5.5529922353728729  4.3297651374748005
  1.9101970919067506  5.5529922353728729  4.3297651374748005
  1.9101970919067663  3.3085584747298693  4.3297651374748005
  7.0264157627680470  3.3085584747298693  4.3297651374748005
 -0.6479122435238732  7.7393338150119915  4.3297651374748005
  4.4683064273374073  7.7393338150119915  4.3297651374748005
  1.2958244103043948  0.0000000147692487  4.3297651374748005
  6.4120430811656739  0.0000000147692487  4.3297651374748005
 -1.2622849251262449  4.4307753550513693  4.3297651374748005
  3.8539337457350338  4.4307753550513693  4.3297651374748005
  3.2060215277923070  0.3547082478751206  1.4432550843117267
  8.3222401986535868  0.3547082478751206  1.4432550843117267
  0.6479121923616671  4.7854835881572431  1.4432550843117267
  5.7641308632229471  4.7854835881572431  1.4432550843117267
 10.2375240370886846  0.0000000147692480  8.6681398205787303
  5.1162186452801528  0.0000000147692480  8.6595302172194124
  7.6743279807107889  4.4307753550513693  8.6595302172194124
  2.5581093098495127  4.4307753550513693  8.6595302172194124
  2.5581093098495122  1.4769251281966229  5.7730201640563372
  7.6743279807107916  1.4769251281966229  5.7730201640563372
 -0.0000000255811275  5.9077004684787440  5.7730201640563372
  5.1162186452801528  5.9077004684787440  5.7730201640563372
  2.5581093098495113  1.4769251281966227 14.4325503235455557
  7.6743279807107934  1.4769251281966227 14.4325503235455557
 -0.0000000255811274  5.9077004684787431 14.4325503235455557
  5.1162186452801519  5.9077004684787431 14.4325503235455557
 -0.0000000255811275  2.9538502416239973 11.5460402703824858
  5.1162186452801501  2.9538502416239973 11.5460402703824858
 -2.5581093610117667  7.3846255819061204 11.5460402703824858
  2.5581093098495118  7.3846255819061204 11.5460402703824858
 -0.0000000255811281  2.9538502416239969  2.8865101108932638
  5.1162186452801519  2.9538502416239969  2.8865101108932638
 -2.5581093610117667  7.3846255819061177  2.8865101108932638
  2.5581093098495127  7.3846255819061177  2.8865101108932638
 10.2324373161414304  0.0000000147692487  0.0000000577301904
  5.1162186452801519  0.0000000147692487  0.0000000577301904
  7.6743279807107916  4.4307753550513693  0.0000000577301904
  2.5581093098495122  4.4307753550513693  0.0000000577301904
