C  O  Ca
 1.0000000000000000
     4.8152646313988496   -0.0000000000000000   -0.0000000000000000
    -2.4076323156994248    4.1701414967361128   -0.0000000000000000
    -0.0000000000000004    0.0000000000000001   16.3002920649208924
 C   O   Ca 
   6  18   6
Selective dynamics
Cartesian
 -0.0000000240763551  2.7800943450578774  6.7917884147179999   T   T   T
  2.4076322916230701  1.3900471794791731  9.5085037588714822   T   T   T
 -0.0000000240763551  0.0000000139004688 12.2252191030249637   T   T   T
 -0.0000000240763547  2.7800943450578774 14.9419344471784470   T   T   T
  2.4076322916230697  1.3900471794791731  1.3583577264110360   T   T   T
 -0.0000000240763547  0.0000000139004688  4.0750730705645184   T   T   T
  0.6394072872759099  3.8875802950510119  6.7917884147179999   T   T   T
 -1.2788146467808839  2.7800943450578779  6.7917884147179999   T   T   T
  1.7682249802708061  2.4975331294723078  9.5085037588714822   T   T   T
  1.7682249802708061  0.2825612294860399  9.5085037588714822   T   T   T
  3.6864469143275982  1.3900471794791729  9.5085037588714822   T   T   T
  0.6394072872759095  1.6726083950647437  6.7917884147179999   T   T   T
  0.6394072872759099  1.1074859638936030 12.2252191030249637   T   T   T
  3.5364499846179669  0.0000000139004692 12.2252191030249637   T   T   T
 -0.6394073354286193  3.8875802950510119 14.9419344471784470   T   T   T
 -0.6394073354286193  1.6726083950647443 14.9419344471784470   T   T   T
  1.2788145986281749  2.7800943450578770 14.9419344471784470   T   T   T
 -1.7682250284235159  3.0626555606434480 12.2252191030249637   T   T   T
  3.0470396029753366  2.4975331294723078  1.3583577264110360   T   T   T
  1.1288176689185410  1.3900471794791736  1.3583577264110360   T   T   T
 -0.6394073354286193  1.1074859638936030  4.0750730705645184   T   T   T
  1.7682249802708061  3.0626555606434485  4.0750730705645184   T   T   T
  1.2788145986281749  0.0000000139004686  4.0750730705645184   T   T   T
  3.0470396029753362  0.2825612294860388  1.3583577264110360   T   T   T
 -0.0000000240763551  0.0000000139004692  8.1501460867947415   T   T   T
  2.4076322916230701  1.3900471794791733  5.4334307426412591   T   T   T
  2.4076322916230697  1.3900471794791731 13.5835767751017045   T   T   T
 -0.0000000240763547  2.7800943450578779 10.8668614309482230   T   T   T
 -0.0000000240763551  2.7800943450578774  2.7167153984877777   T   T   T
 -0.0000000240763547  0.0000000139004690  0.0000000543342953   T   T   T
