C  O  Ca
 1.0000000000000000
     5.1665770428325368   -0.0000000000000000    0.0000000000000000
    -2.5832885214162680    4.4743869697024579    0.0000000000000000
     0.0000000000000001    0.0000000000000002   17.5355982243209283
 C   O   Ca 
   6  18   6
Selective dynamics
Cartesian
 -0.0000000258329236  2.9829246613829499  7.3064993185857094   T   T   T
  2.5832884955833353  1.4914623381487970 10.2290990226391969   T   T   T
 -0.0000000258329331  0.0000000149146442 13.1516987266926861   T   T   T
 -0.0000000258329236  2.9829246613829499 16.0742984307461718   T   T   T
  2.5832884955833353  1.4914623381487970  1.4612999104787336   T   T   T
 -0.0000000258329331  0.0000000149146442  4.3838996145322211   T   T   T
  0.6490481564655122  4.1071090896840676  7.3064993185857094   T   T   T
 -1.2980963904298033  2.9829246613829499  7.3064993185857094   T   T   T
  1.9342403132848986  2.6156467664499123 10.2290990226391969   T   T   T
  1.9342403132848993  0.3672779098476806 10.2290990226391969   T   T   T
  3.8813848601802081  1.4914623381487973 10.2290990226391969   T   T   T
  0.6490481564655126  1.8587402330818341  7.3064993185857094   T   T   T
  0.6490481564655020  1.1241844432157604 13.1516987266926861   T   T   T
  3.8684806524027313  0.0000000149146442 13.1516987266926861   T   T   T
 -0.6490482081313587  4.1071090896840667 16.0742984307461718   T   T   T
 -0.6490482081313580  1.8587402330818341 16.0742984307461718   T   T   T
  1.2980963387639375  2.9829246613829499 16.0742984307461718   T   T   T
 -1.9342403649507447  3.3502025563159874 13.1516987266926861   T   T   T
  3.2323366778817695  2.6156467664499132  1.4612999104787336   T   T   T
  1.2851921309864651  1.4914623381487970  1.4612999104787336   T   T   T
 -0.6490482081313688  1.1241844432157597  4.3838996145322211   T   T   T
  1.9342403132849195  3.3502025563159874  4.3838996145322211   T   T   T
  1.2980963387639375  0.0000000149146444  4.3838996145322211   T   T   T
  3.2323366778817699  0.3672779098476807  1.4612999104787336   T   T   T
 -0.0000000258329336  0.0000000149146437  8.7677991706124541   T   T   T
  2.5832884955833353  1.4914623381487973  5.8451994665589657   T   T   T
  2.5832884955833348  1.4914623381487968 14.6129985787194308   T   T   T
 -0.0000000258329236  2.9829246613829499 11.6903988746659415   T   T   T
 -0.0000000258329240  2.9829246613829499  2.9225997625054783   T   T   T
 -0.0000000258329331  0.0000000149146444  0.0000000584519899   T   T   T
