C  O  Ca
 1.0000000000000000
     9.5882518347945211    0.0000000000000000    0.0000000000000000
    -4.7941259173972597    8.3036696668148071    0.0000000000000000
    -0.0000000000000009    0.0000000000000005   16.2560818201985420
 C   O   Ca 
  24  72  24
Cartesian
  0.0050803497792725  2.7678899027777253  6.7819808295215056
  4.7941258934266040  2.7678899027777253  6.7733674792696563
 -2.3970629826692860  6.9197247361851302  6.7733674792696563
  2.3970629347279733  6.9197247361851302  6.7733674792696563
  2.3970629347279697  1.3839449583085917  9.4827144493027475
  7.1911888521252294  1.3839449583085917  9.4827144493027475
 -0.0000000239706603  5.5357797917159948  9.4827144493027475
  4.7941258934265987  5.5357797917159948  9.4827144493027475
  9.5882518108238628  0.0000000138394571 12.1920614193358361
  4.7941258934266004  0.0000000138394571 12.1920614193358361
  7.1911888521252330  4.1518348472468602 12.1920614193358361
  2.3970629347279693  4.1518348472468602 12.1920614193358361
 -0.0000000239706558  2.7678899027777253 14.9014083893689282
  4.7941258934266049  2.7678899027777253 14.9014083893689282
 -2.3970629826692855  6.9197247361851311 14.9014083893689282
  2.3970629347279737  6.9197247361851311 14.9014083893689282
  2.3970629347279697  1.3839449583085917  1.3546735392034757
  7.1911888521252303  1.3839449583085917  1.3546735392034757
 -0.0000000239706603  5.5357797917159948  1.3546735392034757
  4.7941258934265996  5.5357797917159948  1.3546735392034757
  9.5882518108238610  0.0000000138394571  4.0640205092365669
  4.7941258934266013  0.0000000138394571  4.0640205092365669
  7.1911888521252321  4.1518348472468602  4.0640205092365669
  2.3970629347279697  4.1518348472468602  4.0640205092365669
  0.6401222468357040  3.8766141988707123  6.7733674792696563
  5.4342481642329643  3.8766141988707123  6.7733674792696563
 -1.7569407118629263  8.0284490322781163  6.7733674792696563
  3.0371852055343336  8.0284490322781163  6.7733674792696563
 -1.2802445655833754  2.7678899027777253  6.7733674792696563
  3.5138813518138843  2.7678899027777253  6.7733674792696563
 -3.6773075242820057  6.9197247361851302  6.7733674792696563
  1.1168183931152547  6.9197247361851302  6.7733674792696563
  1.7569406639216218  2.4926692544015769  9.4827144493027475
  6.5510665813188806  2.4926692544015769  9.4827144493027475
 -0.6401222947770092  6.6445040878089792  9.4827144493027475
  4.1540036226202490  6.6445040878089792  9.4827144493027475
  1.7569406639216214  0.2752206622156039  9.4827144493027475
  6.5510665813188815  0.2752206622156039  9.4827144493027475
 -0.6401222947770089  4.4270554956230077  9.4827144493027475
  4.1540036226202508  4.4270554956230077  9.4827144493027475
  3.6773074763407254  1.3839449583085919  9.4827144493027475
  8.4714333937379873  1.3839449583085919  9.4827144493027475
  1.2802445176420960  5.5357797917159948  9.4827144493027475
  6.0743704350393539  5.5357797917159948  9.4827144493027475
  0.6401222468357128  1.6591656066847380  6.7733674792696563
  5.4342481642329732  1.6591656066847380  6.7733674792696563
 -1.7569407118629179  5.8110004400921413  6.7733674792696563
  3.0371852055343420  5.8110004400921413  6.7733674792696563
  0.6401222468357048  1.1087243099324458 12.1920614193358361
  5.4342481642329643  1.1087243099324458 12.1920614193358361
 -1.7569407118629252  5.2605591433398491 12.1920614193358361
  3.0371852055343345  5.2605591433398491 12.1920614193358361
  3.5138813518139012  0.0000000138394571 12.1920614193358361
  8.3080072692111635  0.0000000138394571 12.1920614193358361
  1.1168183931152715  4.1518348472468602 12.1920614193358361
  5.9109443105125337  4.1518348472468602 12.1920614193358361
 -0.6401222947770250  3.8766141988707115 14.9014083893689282
  4.1540036226202348  3.8766141988707115 14.9014083893689282
 -3.0371852534756552  8.0284490322781146 14.9014083893689282
  1.7569406639216054  8.0284490322781146 14.9014083893689282
 -0.6401222947770173  1.6591656066847378 14.9014083893689282
  4.1540036226202446  1.6591656066847378 14.9014083893689282
 -3.0371852534756476  5.8110004400921422 14.9014083893689282
  1.7569406639216141  5.8110004400921422 14.9014083893689282
  1.2802445176420849  2.7678899027777253 14.9014083893689282
  6.0743704350393468  2.7678899027777253 14.9014083893689282
 -1.1168184410565452  6.9197247361851311 14.9014083893689282
  3.6773074763407165  6.9197247361851311 14.9014083893689282
  7.8313111229315933  3.0431105511538745 12.1920614193358361
  3.0371852055343345  3.0431105511538745 12.1920614193358361
  5.4342481642329634  7.1949453845612776 12.1920614193358361
  0.6401222468357038  7.1949453845612776 12.1920614193358361
  3.0371852055343624  2.4926692544015783  1.3546735392034757
  7.8313111229316243  2.4926692544015783  1.3546735392034757
  0.6401222468357326  6.6445040878089801  1.3546735392034757
  5.4342481642329954  6.6445040878089801  1.3546735392034757
  1.1168183931152396  1.3839449583085917  1.3546735392034757
  5.9109443105125008  1.3839449583085917  1.3546735392034757
 -1.2802445655833898  5.5357797917159948  1.3546735392034757
  3.5138813518138714  5.5357797917159948  1.3546735392034757
  8.9481295400174972  1.1087243099324446  4.0640205092365669
  4.1540036226202357  1.1087243099324446  4.0640205092365669
  6.5510665813188673  5.2605591433398482  4.0640205092365669
  1.7569406639216052  5.2605591433398482  4.0640205092365669
  1.7569406639216345  3.0431105511538745  4.0640205092365669
  6.5510665813188966  3.0431105511538745  4.0640205092365669
 -0.6401222947769956  7.1949453845612785  4.0640205092365669
  4.1540036226202659  7.1949453845612785  4.0640205092365669
  1.2802445176420709  0.0000000138394574  4.0640205092365669
  6.0743704350393317  0.0000000138394574  4.0640205092365669
 -1.1168184410565591  4.1518348472468602  4.0640205092365669
  3.6773074763407010  4.1518348472468602  4.0640205092365669
  3.0371852055343638  0.2752206622156046  1.3546735392034757
  7.8313111229316235  0.2752206622156046  1.3546735392034757
  0.6401222468357336  4.4270554956230086  1.3546735392034757
  5.4342481642329936  4.4270554956230086  1.3546735392034757
  9.5882518108238592  0.0000000138394567  8.1280409642861979
  4.7941258934266004  0.0000000138394567  8.1280409642861979
  7.1911888521252294  4.1518348472468594  8.1280409642861979
  2.3970629347279711  4.1518348472468594  8.1280409642861979
  2.3970629347279688  1.3839449583085919  5.4186939942531094
  7.1911888521252303  1.3839449583085919  5.4186939942531094
 -0.0000000239706605  5.5357797917159948  5.4186939942531094
  4.7941258934265996  5.5357797917159948  5.4186939942531094
  2.3970629347279688  1.3839449583085914 13.5467349043523821
  7.1911888521252303  1.3839449583085914 13.5467349043523821
 -0.0000000239706610  5.5357797917159948 13.5467349043523821
  4.7941258934265978  5.5357797917159948 13.5467349043523821
 -0.0000000239706553  2.7678899027777253 10.8373879343192918
  4.7941258934266040  2.7678899027777253 10.8373879343192918
 -2.3970629826692846  6.9197247361851293 10.8373879343192918
  2.3970629347279742  6.9197247361851293 10.8373879343192918
 -0.0000000239706567  2.7678899027777253  2.7093470242200199
  4.7941258934266040  2.7678899027777253  2.7093470242200199
 -2.3970629826692864  6.9197247361851302  2.7093470242200199
  2.3970629347279737  6.9197247361851302  2.7093470242200199
  9.5882518108238610  0.0000000138394574  0.0000000541869305
  4.7941258934265996  0.0000000138394574  0.0000000541869305
  7.1911888521252321  4.1518348472468602  0.0000000541869305
  2.3970629347279702  4.1518348472468602  0.0000000541869305
