C  O  Ca
 1.0000000000000000
    10.2873951977482871    0.0000000000000000    0.0000000000000000
    -5.1436975988741427    8.9091455800200521    0.0000000000000000
    -0.0000000000000009    0.0000000000000001   17.4414211195880213
 C   O   Ca 
  24  72  24
Cartesian
  0.0050803480314114  2.9697152081886018  7.2758722082182521
  5.1436975731556274  2.9697152081886018  7.2672588579664028
 -2.5718488251555884  7.4242879981986283  7.2672588579664028
  2.5718487737185547  7.4242879981986283  7.2672588579664028
  2.5718487737185516  1.4848576115185930 10.1741623778977406
  7.7155463725926943  1.4848576115185930 10.1741623778977406
 -0.0000000257185195  5.9394304015286181 10.1741623778977406
  5.1436975731556211  5.9394304015286181 10.1741623778977406
 10.2873951720297701  0.0000000148485841 13.0810658978290775
  5.1436975731556220  0.0000000148485841 13.0810658978290775
  7.7155463725926952  4.4545728048586097 13.0810658978290775
  2.5718487737185507  4.4545728048586097 13.0810658978290775
 -0.0000000257185170  2.9697152081886018 15.9879694177604144
  5.1436975731556265  2.9697152081886018 15.9879694177604144
 -2.5718488251555884  7.4242879981986283 15.9879694177604144
  2.5718487737185551  7.4242879981986283 15.9879694177604144
  2.5718487737185511  1.4848576115185930  1.4534518181037290
  7.7155463725926952  1.4848576115185930  1.4534518181037290
 -0.0000000257185204  5.9394304015286181  1.4534518181037290
  5.1436975731556238  5.9394304015286181  1.4534518181037290
 10.2873951720297647  0.0000000148485841  4.3603553380350668
  5.1436975731556238  0.0000000148485841  4.3603553380350668
  7.7155463725926960  4.4545728048586097  4.3603553380350668
  2.5718487737185511  4.4545728048586097  4.3603553380350668
  0.6493890565523831  4.0944900925623280  7.2672588579664028
  5.7930866554265252  4.0944900925623280  7.2672588579664028
 -1.9224597428846892  8.5490628825723540  7.2672588579664028
  3.2212378559894534  8.5490628825723540  7.2672588579664028
 -1.2987781902603204  2.9697152081886022  7.2672588579664028
  3.8449194086138232  2.9697152081886022  7.2672588579664028
 -3.8706269896973913  7.4242879981986283  7.2672588579664028
  1.2730706091767519  7.4242879981986283  7.2672588579664028
  1.9224596914476579  2.6096324958923174 10.1741623778977406
  7.0661572903218008  2.6096324958923174 10.1741623778977406
 -0.6493891079894136  7.0642052859023430 10.1741623778977406
  4.4943084908847295  7.0642052859023430 10.1741623778977406
  1.9224596914476582  0.3600827271448685 10.1741623778977406
  7.0661572903218000  0.3600827271448685 10.1741623778977406
 -0.6493891079894138  4.8146555171548950 10.1741623778977406
  4.4943084908847286  4.8146555171548950 10.1741623778977406
  3.8706269382603598  1.4848576115185927 10.1741623778977406
  9.0143245371345042  1.4848576115185927 10.1741623778977406
  1.2987781388232886  5.9394304015286181 10.1741623778977406
  6.4424757376974311  5.9394304015286181 10.1741623778977406
  0.6493890565523859  1.8449403238148852  7.2672588579664028
  5.7930866554265315  1.8449403238148852  7.2672588579664028
 -1.9224597428846861  6.2995131138249114  7.2672588579664028
  3.2212378559894566  6.2995131138249114  7.2672588579664028
  0.6493890565523800  1.1247748992223063 13.0810658978290775
  5.7930866554265235  1.1247748992223063 13.0810658978290775
 -1.9224597428846912  5.5793476892323319 13.0810658978290775
  3.2212378559894521  5.5793476892323319 13.0810658978290775
  3.8449194086138347  0.0000000148485846 13.0810658978290775
  8.9886170074879796  0.0000000148485846 13.0810658978290775
  1.2730706091767641  4.4545728048586097 13.0810658978290775
  6.4167682080509083  4.4545728048586097 13.0810658978290775
 -0.6493891079894173  4.0944900925623280 15.9879694177604144
  4.4943084908847251  4.0944900925623280 15.9879694177604144
 -3.2212379074264899  8.5490628825723540 15.9879694177604144
  1.9224596914476528  8.5490628825723540 15.9879694177604144
 -0.6493891079894145  1.8449403238148847 15.9879694177604144
  4.4943084908847286  1.8449403238148847 15.9879694177604144
 -3.2212379074264863  6.2995131138249114 15.9879694177604144
  1.9224596914476568  6.2995131138249114 15.9879694177604144
  1.2987781388232791  2.9697152081886014 15.9879694177604144
  6.4424757376974222  2.9697152081886014 15.9879694177604144
 -1.2730706606137927  7.4242879981986283 15.9879694177604144
  3.8706269382603509  7.4242879981986283 15.9879694177604144
  8.3649354548636037  3.3297979204849102 13.0810658978290775
  3.2212378559894561  3.3297979204849102 13.0810658978290775
  5.7930866554265297  7.7843707104949367 13.0810658978290775
  0.6493890565523859  7.7843707104949367 13.0810658978290775
  3.2212378559894779  2.6096324958923169  1.4534518181037290
  8.3649354548636214  2.6096324958923169  1.4534518181037290
  0.6493890565524065  7.0642052859023430  1.4534518181037290
  5.7930866554265492  7.0642052859023430  1.4534518181037290
  1.2730706091767512  1.4848576115185934  1.4534518181037290
  6.4167682080508932  1.4848576115185934  1.4534518181037290
 -1.2987781902603202  5.9394304015286199  1.4534518181037290
  3.8449194086138219  5.9394304015286199  1.4534518181037290
  9.6380060897588642  1.1247748992223068  4.3603553380350668
  4.4943084908847242  1.1247748992223068  4.3603553380350668
  7.0661572903217955  5.5793476892323328  4.3603553380350668
  1.9224596914476522  5.5793476892323328  4.3603553380350668
  1.9224596914476701  3.3297979204849093  4.3603553380350668
  7.0661572903218151  3.3297979204849093  4.3603553380350668
 -0.6493891079894021  7.7843707104949349  4.3603553380350668
  4.4943084908847437  7.7843707104949349  4.3603553380350668
  1.2987781388232793  0.0000000148485839  4.3603553380350668
  6.4424757376974231  0.0000000148485839  4.3603553380350668
 -1.2730706606137923  4.4545728048586097  4.3603553380350668
  3.8706269382603495  4.4545728048586097  4.3603553380350668
  3.2212378559894765  0.3600827271448692  1.4534518181037290
  8.3649354548636214  0.3600827271448692  1.4534518181037290
  0.6493890565524054  4.8146555171548950  1.4534518181037290
  5.7930866554265501  4.8146555171548950  1.4534518181037290
 10.2873951720297665  0.0000000148485846  8.7207106179320704
  5.1436975731556238  0.0000000148485846  8.7207106179320704
  7.7155463725926952  4.4545728048586097  8.7207106179320704
  2.5718487737185529  4.4545728048586097  8.7207106179320704
  2.5718487737185503  1.4848576115185932  5.8138070980007344
  7.7155463725926943  1.4848576115185932  5.8138070980007344
 -0.0000000257185212  5.9394304015286199  5.8138070980007344
  5.1436975731556229  5.9394304015286199  5.8138070980007344
  2.5718487737185498  1.4848576115185934 14.5345176577947441
  7.7155463725926934  1.4848576115185934 14.5345176577947441
 -0.0000000257185203  5.9394304015286199 14.5345176577947441
  5.1436975731556220  5.9394304015286199 14.5345176577947441
 -0.0000000257185172  2.9697152081886022 11.6276141378634073
  5.1436975731556256  2.9697152081886022 11.6276141378634073
 -2.5718488251555880  7.4242879981986283 11.6276141378634073
  2.5718487737185547  7.4242879981986283 11.6276141378634073
 -0.0000000257185175  2.9697152081886022  2.9069035780693966
  5.1436975731556274  2.9697152081886022  2.9069035780693966
 -2.5718488251555884  7.4242879981986283  2.9069035780693966
  2.5718487737185560  7.4242879981986283  2.9069035780693966
 10.2873951720297665  0.0000000148485844  0.0000000581380606
  5.1436975731556238  0.0000000148485844  0.0000000581380606
  7.7155463725926960  4.4545728048586097  0.0000000581380606
  2.5718487737185516  4.4545728048586097  0.0000000581380606
