C  O  Ca
 1.0000000000000000
     4.9155826445529911    0.0000000000000000   -0.0000000000000000
    -2.4577913222764951    4.2570194445847829   -0.0000000000000000
    -0.0000000000000009   -0.0000000000000008   16.6398814829400763
 C   O   Ca 
   6  18   6
Selective dynamics
Cartesian
 -0.0000000245779444  2.8380129772465992  6.9332840066912897   T   T   T
  2.4577912976985496  1.4190064957183310  9.7065975871813031   T   T   T
 -0.0000000245779459  0.0000000141900629 12.4799111676713146   T   T   T
 -0.0000000245779444  2.8380129772465992 15.2532247481613279   T   T   T
  2.4577912976985496  1.4190064957183310  1.3866568457112649   T   T   T
 -0.0000000245779459  0.0000000141900629  4.1599704262012782   T   T   T
  0.6426957193234324  3.9511946594920535  6.9332840066912897   T   T   T
 -1.2853915123806947  2.8380129772465996  6.9332840066912897   T   T   T
  1.8150955537971831  2.5321881779637931  9.7065975871813031   T   T   T
  1.8150955537971829  0.3058248134728679  9.7065975871813031   T   T   T
  3.7431827855013129  1.4190064957183308  9.7065975871813031   T   T   T
  0.6426957193234357  1.7248312950011284  6.9332840066912897   T   T   T
  0.6426957193234325  1.1131816964355186 12.4799111676713146   T   T   T
  3.6301911321723122  0.0000000141900633 12.4799111676713146   T   T   T
 -0.6426957684793240  3.9511946594920540 15.2532247481613279   T   T   T
 -0.6426957684793204  1.7248312950011282 15.2532247481613279   T   T   T
  1.2853914632248180  2.8380129772465987 15.2532247481613279   T   T   T
 -1.8150956029530676  3.1438377765294052 12.4799111676713146   T   T   T
  3.1004870415999388  2.5321881779637927  1.3866568457112649   T   T   T
  1.1723998098958008  1.4190064957183315  1.3866568457112649   T   T   T
 -0.6426957684793239  1.1131816964355190  4.1599704262012782   T   T   T
  1.8150955537971902  3.1438377765294052  4.1599704262012782   T   T   T
  1.2853914632248107  0.0000000141900627  4.1599704262012782   T   T   T
  3.1004870415999384  0.3058248134728681  1.3866568457112649   T   T   T
 -0.0000000245779459  0.0000000141900633  8.3199407969362973   T   T   T
  2.4577912976985496  1.4190064957183313  5.5466272164462840   T   T   T
  2.4577912976985496  1.4190064957183315 13.8665679579163221   T   T   T
 -0.0000000245779444  2.8380129772465996 11.0932543774263088   T   T   T
 -0.0000000245779444  2.8380129772465996  2.7733136359562724   T   T   T
 -0.0000000245779459  0.0000000141900631  0.0000000554662591   T   T   T
