C  O  Ca
0.98
     5.0159006577071370   -0.0000000000000000    0.0000000000000000
    -2.5079503288535676    4.3438973924334530    0.0000000000000000
     0.0000000000000000    0.0000000000000015   16.9794709009592637
 C   O   Ca 
   6  18   6
Selective dynamics
Cartesian
 -0.0000000250795360  2.8959316094352916  7.0747795986645832   T   T   T
  2.5079503037740722  1.4479658119574779  9.9046914154911718   T   T   T
 -0.0000000250795029  0.0000000144796582 12.7346032323176885   T   T   T
 -0.0000000250795360  2.8959316094352916 15.5645150491441981   T   T   T
  2.5079503037740722  1.4479658119574779  1.4149559650115091   T   T   T
 -0.0000000250795029  0.0000000144796582  4.2448677818380594   T   T   T
  0.6455365425482196  4.0140337427101063  7.0747795986645832   T   T   T
 -1.2910731603353798  2.8959316094352916  7.0747795986645832   T   T   T
  1.8624137361460553  2.5660679452325645  9.9046914154911718   T   T   T
  1.8624137361462008  0.3298636786823876  9.9046914154911718   T   T   T
  3.7990234390297757  1.4479658119574781  9.9046914154911718   T   T   T
  0.6455365425482928  1.7778294761601900  7.0747795986645832   T   T   T
  0.6455365425482921  1.1181021477547415 12.7346032323176885   T   T   T
  3.7248274973718973  0.0000000144796582 12.7346032323176885   T   T   T
 -0.6455365927075153  4.0140337427101054 15.5645150491441981   T   T   T
 -0.6455365927074423  1.7778294761601898 15.5645150491441981   T   T   T
  1.2910731101760826  2.8959316094352916 15.5645150491441981   T   T   T
 -1.8624137863053456  3.2257952736380275 12.7346032323176885   T   T   T
  3.1534868714019209  2.5660679452325654  1.4149559650115091   T   T   T
  1.2168771685183339  1.4479658119574779  1.4149559650115091   T   T   T
 -0.6455365927074428  1.1181021477547408  4.2448677818380594   T   T   T
  1.8624137361460558  3.2257952736380275  4.2448677818380594   T   T   T
  1.2910731101762276  0.0000000144796584  4.2448677818380594   T   T   T
  3.1534868714019217  0.3298636786823880  1.4149559650115091   T   T   T
 -0.0000000250795033  0.0000000144796578  8.4897355070779028   T   T   T
  2.5079503037740722  1.4479658119574781  5.6598236902513230   T   T   T
  2.5079503037740718  1.4479658119574776 14.1495591407309380   T   T   T
 -0.0000000250795360  2.8959316094352916 11.3196473239044231   T   T   T
 -0.0000000250795365  2.8959316094352916  2.8299118734247815   T   T   T
 -0.0000000250795029  0.0000000144796584  0.0000000565982371   T   T   T
