C  O  Ca
 1.0000000000000000
    10.0321884326845367    0.0000000000000000    0.0000000000000000
    -5.0160942163422693    8.6881300382572011    0.0000000000000000
    -0.0000000000000003    0.0000000000000002   17.0248526449717765
 C   O   Ca 
  24  72  24
Cartesian
 -0.0000000250805150  2.8960433605659706  7.0936886588210788
  5.0160941912617529  2.8960433605659706  7.0936886588210788
 -2.5080471332516492  7.2401083796945720  7.0936886588210788
  2.5080470830906183  7.2401083796945720  7.0936886588210788
  2.5080470830906161  1.4480216875231042  9.9311640996497079
  7.5241412994328831  1.4480216875231042  9.9311640996497079
 -0.0000000250805191  5.7920867066517054  9.9311640996497079
  5.0160941912617485  5.7920867066517054  9.9311640996497079
 10.0321884076040178  0.0000000144802370 12.7686395404783362
  5.0160941912617512  0.0000000144802370 12.7686395404783362
  7.5241412994328840  4.3440650336088380 12.7686395404783362
  2.5080470830906147  4.3440650336088380 12.7686395404783362
 -0.0000000250805144  2.8960433605659706 15.6061149813069697
  5.0160941912617538  2.8960433605659706 15.6061149813069697
 -2.5080471332516492  7.2401083796945720 15.6061149813069697
  2.5080470830906187  7.2401083796945720 15.6061149813069697
  2.5080470830906161  1.4480216875231038  1.4187377771638214
  7.5241412994328831  1.4480216875231038  1.4187377771638214
 -0.0000000250805185  5.7920867066517054  1.4187377771638214
  5.0160941912617485  5.7920867066517054  1.4187377771638214
 10.0321884076040178  0.0000000144802370  4.2562132179924523
  5.0160941912617512  0.0000000144802370  4.2562132179924523
  7.5241412994328840  4.3440650336088380  4.2562132179924523
  2.5080470830906161  4.3440650336088380  4.2562132179924523
  0.6355796961449341  4.0142202380645964  7.0936886588210788
  5.6616739124872035  4.0142202380645964  7.0936886588210788
 -1.8624674120262001  8.3582852571931969  7.0936886588210788
  3.1536268043160685  8.3582852571931969  7.0936886588210788
 -1.2911594675314120  2.8960433605659719  7.0936886588210788
  3.7249347488108562  2.8960433605659719  7.0936886588210788
 -3.7992065757025464  7.2401083796945729  7.0936886588210788
  1.2168876406397209  7.2401083796945729  7.0936886588210788
  1.8624673618651693  2.5661985650217316  9.9311640996497079
  6.8785615782074387  2.5661985650217316  9.9311640996497079
 -0.6455797463059658  6.9102635841503339  9.9311640996497079
  4.3705144700363032  6.9102635841503339  9.9311640996497079
  1.8624673618651690  0.3298448100244784  9.9311640996497079
  6.8785615782074387  0.3298448100244784  9.9311640996497079
 -0.6455797463059655  4.6739098291530787  9.9311640996497079
  4.3705144700363041  4.6739098291530787  9.9311640996497079
  3.7992065255415115  1.4480216875231042  9.9311640996497079
  8.8153007418837817  1.4480216875231042  9.9311640996497079
  1.2911594173703753  5.7920867066517054  9.9311640996497079
  6.3072536337126444  5.7920867066517054  9.9311640996497079
  0.6455796961449288  1.7778664830673454  7.0936886588210788
  5.6616739124871991  1.7778664830673454  7.0936886588210788
 -1.8624674120262052  6.1219315021959453  7.0936886588210788
  3.1536268043160649  6.1219315021959453  7.0936886588210788
  0.6455796961449294  1.1181768919788633 12.7686395404783362
  5.6616739124871982  1.1181768919788633 12.7686395404783362
 -1.8624674120262052  5.4622419111074647 12.7686395404783362
  3.1536268043160627  5.4622419111074647 12.7686395404783362
  3.7249347488108548  0.0000000144802375 12.7686395404783362
  8.7410289651531237  0.0000000144802375 12.7686395404783362
  1.2168876406397220  4.3440650336088380 12.7686395404783362
  6.2329818569819917  4.3440650336088380 12.7686395404783362
 -0.6455797463059594  4.0142202380645964 15.6061149813069697
  4.3705144700363103  4.0142202380645964 15.6061149813069697
 -3.1536268544770940  8.3582852571931969 15.6061149813069697
  1.8624673618651750  8.3582852571931969 15.6061149813069697
 -0.6455797463059645  1.7778664830673456 15.6061149813069697
  4.3705144700363041  1.7778664830673456 15.6061149813069697
 -3.1536268544770993  6.1219315021959462 15.6061149813069697
  1.8624673618651690  6.1219315021959462 15.6061149813069697
  1.2911594173703755  2.8960433605659701 15.6061149813069697
  6.3072536337126452  2.8960433605659701 15.6061149813069697
 -1.2168876908007598  7.2401083796945720 15.6061149813069697
  3.7992065255415093  7.2401083796945720 15.6061149813069697
  8.1697210206583311  3.2258881561102113 12.7686395404783362
  3.1536268043160631  3.2258881561102113 12.7686395404783362
  5.6616739124871964  7.5699531752388118 12.7686395404783362
  0.6455796961449287  7.5699531752388118 12.7686395404783362
  3.1536268043160627  2.5661985650217316  1.4187377771638214
  8.1697210206583311  2.5661985650217316  1.4187377771638214
  0.6455796961449281  6.9102635841503339  1.4187377771638214
  5.6616739124871955  6.9102635841503339  1.4187377771638214
  1.2168876406397224  1.4480216875231042  1.4187377771638214
  6.2329818569819917  1.4480216875231042  1.4187377771638214
 -1.2911594675314122  5.7920867066517054  1.4187377771638214
  3.7249347488108557  5.7920867066517054  1.4187377771638214
  9.3866086863785707  1.1181768919788633  4.2562132179924523
  4.3705144700363041  1.1181768919788633  4.2562132179924523
  6.8785615782074361  5.4622419111074647  4.2562132179924523
  1.8624673618651697  5.4622419111074647  4.2562132179924523
  1.8624673618651697  3.2258881561102117  4.2562132179924523
  6.8785615782074387  3.2258881561102117  4.2562132179924523
 -0.6455797463059654  7.5699531752388127  4.2562132179924523
  4.3705144700363032  7.5699531752388127  4.2562132179924523
  1.2911594173703760  0.0000000144802368  4.2562132179924523
  6.3072536337126444  0.0000000144802368  4.2562132179924523
 -1.2168876908007586  4.3440650336088380  4.2562132179924523
  3.7992065255415093  4.3440650336088380  4.2562132179924523
  3.1536268043160627  0.3298448100244780  1.4187377771638214
  8.1697210206583293  0.3298448100244780  1.4187377771638214
  0.6455796961449284  4.6739098291530787  1.4187377771638214
  5.6616739124871955  4.6739098291530787  1.4187377771638214
 10.0321884076040178  0.0000000144802375  8.5124263792353947
  5.0160941912617512  0.0000000144802375  8.5124263792353947
  7.5241412994328840  4.3440650336088380  8.5124263792353947
  2.5080470830906161  4.3440650336088380  8.5124263792353947
  2.5080470830906165  1.4480216875231040  5.6749509384067647
  7.5241412994328849  1.4480216875231040  5.6749509384067647
 -0.0000000250805186  5.7920867066517054  5.6749509384067647
  5.0160941912617503  5.7920867066517054  5.6749509384067647
  2.5080470830906152  1.4480216875231042 14.1873772608926494
  7.5241412994328831  1.4480216875231042 14.1873772608926494
 -0.0000000250805192  5.7920867066517054 14.1873772608926494
  5.0160941912617485  5.7920867066517054 14.1873772608926494
 -0.0000000250805149  2.8960433605659719 11.3499018200640229
  5.0160941912617538  2.8960433605659719 11.3499018200640229
 -2.5080471332516492  7.2401083796945729 11.3499018200640229
  2.5080470830906187  7.2401083796945729 11.3499018200640229
 -0.0000000250805150  2.8960433605659719  2.8374754975781356
  5.0160941912617529  2.8960433605659719  2.8374754975781356
 -2.5080471332516496  7.2401083796945729  2.8374754975781356
  2.5080470830906179  7.2401083796945729  2.8374754975781356
 10.0321884076040178  0.0000000144802372  0.0000000567495073
  5.0160941912617512  0.0000000144802372  0.0000000567495073
  7.5241412994328840  4.3440650336088380  0.0000000567495073
  2.5080470830906161  4.3440650336088380  0.0000000567495073
