Si
 1.0000000000000000
    11.1485611629997052    0.0000000000000000    0.0000000000000000
     0.0000000000000000   11.1485611629997052    0.0000000000000000
     0.0000000000000000    0.0000000000000000   11.1485611629997052
 Si 
  64
Cartesian
  1.4035701490699299  4.1807104370167760  1.3935701490699297
  6.9678507305697819  4.1807104370167760  1.3935701490699297
  1.3935701490699297  9.7549910185166286  1.3935701490699297
  6.9678507305697819  9.7549910185166286  1.3935701490699297
  1.3935701490699297  4.1807104370167760  6.9678507305697819
  6.9678507305697819  4.1807104370167760  6.9678507305697819
  1.3935701490699297  9.7549910185166286  6.9678507305697819
  6.9678507305697819  9.7549910185166286  6.9678507305697819
  0.0000000036949666  0.0000000008918866  2.7871402944448933
  5.5742805851948187  0.0000000008918866  2.7871402944448933
  0.0000000036949666  5.5742805823917401  2.7871402944448933
  5.5742805851948187  5.5742805823917401  2.7871402944448933
  0.0000000036949666  0.0000000008918866  8.3614208759447486
  5.5742805851948187  0.0000000008918866  8.3614208759447486
  0.0000000036949666  5.5742805823917401  8.3614208759447486
  5.5742805851948187  5.5742805823917401  8.3614208759447486
  1.3935701490699297  1.3935701462668497  4.1807104398198565
  6.9678507305697819  1.3935701462668497  4.1807104398198565
  1.3935701490699297  6.9678507277667032  4.1807104398198565
  6.9678507305697819  6.9678507277667032  4.1807104398198565
  1.3935701490699297  1.3935701462668497  9.7549910213197091
  6.9678507305697819  1.3935701462668497  9.7549910213197091
  1.3935701490699297  6.9678507277667032  9.7549910213197091
  6.9678507305697819  6.9678507277667032  9.7549910213197091
  0.0000000036949666  2.7871402916418138  0.0000000036949666
  5.5742805851948187  2.7871402916418138  0.0000000036949666
  0.0000000036949666  8.3614208731416664  0.0000000036949666
  5.5742805851948187  8.3614208731416664  0.0000000036949666
  0.0000000036949666  2.7871402916418138  5.5742805851948187
  5.5742805851948187  2.7871402916418138  5.5742805851948187
  0.0000000036949666  8.3614208731416664  5.5742805851948187
  5.5742805851948187  8.3614208731416664  5.5742805851948187
  4.1807104398198565  4.1807104370167760  4.1807104398198565
  9.7549910213197091  4.1807104370167760  4.1807104398198565
  4.1807104398198565  9.7549910185166286  4.1807104398198565
  9.7549910213197091  9.7549910185166286  4.1807104398198565
  4.1807104398198565  4.1807104370167760  9.7549910213197091
  9.7549910213197091  4.1807104370167760  9.7549910213197091
  4.1807104398198565  9.7549910185166286  9.7549910213197091
  9.7549910213197091  9.7549910185166286  9.7549910213197091
  2.7871402944448933  0.0000000008918866  0.0000000036949666
  8.3614208759447486  0.0000000008918866  0.0000000036949666
  2.7871402944448933  5.5742805823917401  0.0000000036949666
  8.3614208759447486  5.5742805823917401  0.0000000036949666
  2.7871402944448933  0.0000000008918866  5.5742805851948187
  8.3614208759447486  0.0000000008918866  5.5742805851948187
  2.7871402944448933  5.5742805823917401  5.5742805851948187
  8.3614208759447486  5.5742805823917401  5.5742805851948187
  4.1807104398198565  1.3935701462668497  1.3935701490699297
  9.7549910213197091  1.3935701462668497  1.3935701490699297
  4.1807104398198565  6.9678507277667032  1.3935701490699297
  9.7549910213197091  6.9678507277667032  1.3935701490699297
  4.1807104398198565  1.3935701462668497  6.9678507305697819
  9.7549910213197091  1.3935701462668497  6.9678507305697819
  4.1807104398198565  6.9678507277667032  6.9678507305697819
  9.7549910213197091  6.9678507277667032  6.9678507305697819
  2.7871402944448933  2.7871402916418138  2.7871402944448933
  8.3614208759447486  2.7871402916418138  2.7871402944448933
  2.7871402944448933  8.3614208731416664  2.7871402944448933
  8.3614208759447486  8.3614208731416664  2.7871402944448933
  2.7871402944448933  2.7871402916418138  8.3614208759447486
  8.3614208759447486  2.7871402916418138  8.3614208759447486
  2.7871402944448933  8.3614208731416664  8.3614208759447486
  8.3614208759447486  8.3614208731416664  8.3614208759447486
