C  O  Ca
 1.0000000000000000
     5.1164161006691131   -0.0000000000000000    0.0000000000000000
    -2.5582080503345570    4.4309463195111718    0.0000000000000000
    -0.0000000000000003    0.0000000000000006   17.3653496978712099
 C   O   Ca 
   6  18   6
Selective dynamics
Cartesian
 -0.0000000255821403  2.9539642277772900  7.2355624319974989   T   T   T
  2.5582080247524108  1.4769821212735661 10.1297873816427000   T   T   T
 -0.0000000255821284  0.0000000147698422 13.0240123312879028   T   T   T
 -0.0000000255821398  2.9539642277772900 15.9182372809331021   T   T   T
  2.5582080247524104  1.4769821212735661  1.4471125327070959   T   T   T
 -0.0000000255821280  0.0000000147698422  4.3413374823522970   T   T   T
  0.6479806927258064  4.0762997542116484  7.2355624319974989   T   T   T
 -1.2959614621980406  2.9539642277772904  7.2355624319974989   T   T   T
  1.9102273064444548  2.5993176477079234 10.1297873816427000   T   T   T
  1.9102273064444639  0.3546465948392095 10.1297873816427000   T   T   T
  3.8541694613683224  1.4769821212735659 10.1297873816427000   T   T   T
  0.6479806927258147  1.8316287013429333  7.2355624319974989   T   T   T
  0.6479806927258196  1.1223355412041989 13.0240123312879028   T   T   T
  3.8204546384710558  0.0000000147698427 13.0240123312879028   T   T   T
 -0.6479807438900979  4.0762997542116484 15.9182372809331021   T   T   T
 -0.6479807438900888  1.8316287013429338 15.9182372809331021   T   T   T
  1.2959614110337672  2.9539642277772895 15.9182372809331021   T   T   T
 -1.9102273576087290  3.3086108078466565 13.0240123312879028   T   T   T
  3.2061887430603502  2.5993176477079234  1.4471125327070959   T   T   T
  1.2622465881364981  1.4769821212735665  1.4471125327070959   T   T   T
 -0.6479807438900844  1.1223355412041991  4.3413374823522970   T   T   T
  1.9102273064444550  3.3086108078466574  4.3413374823522970   T   T   T
  1.2959614110337760  0.0000000147698420  4.3413374823522970   T   T   T
  3.2061887430603675  0.3546465948392092  1.4471125327070959   T   T   T
 -0.0000000255821284  0.0000000147698422  8.6826749068201003   T   T   T
  2.5582080247524108  1.4769821212735663  5.7884499571748984   T   T   T
  2.5582080247524104  1.4769821212735663 14.4711248061105024   T   T   T
 -0.0000000255821398  2.9539642277772904 11.5768998564653014   T   T   T
 -0.0000000255821403  2.9539642277772904  2.8942250075296974   T   T   T
 -0.0000000255821280  0.0000000147698425  0.0000000578844954   T   T   T
