C  O  Ca
 1.0000000000000000
    10.0876399511900701    0.0000000000000000    0.0000000000000000
    -5.0438199755950350    8.7361524619614155    0.0000000000000000
    -0.0000000000000009   -0.0000000000000008   17.1027527483338844
 C   O   Ca 
  24  72  24
Cartesian
 -0.0050803989690609  2.9120508352140666  7.1175336852297697
  5.0438199503759042  2.9120508352140666  7.1261470354816181
 -2.5219100130166505  7.2801270661947752  7.1261470354816181
  2.5219099625783863  7.2801270661947752  7.1261470354816181
  2.5219099625783850  1.4560254248871642  9.9766058268705997
  7.5657299381734191  1.4560254248871642  9.9766058268705997
 -0.0000000252191326  5.8241016558678700  9.9766058268705997
  5.0438199503759025  5.8241016558678700  9.9766058268705997
 10.0876399259709402  0.0000000145602619 12.8270646182595804
  5.0438199503759025  0.0000000145602619 12.8270646182595804
  7.5657299381734191  4.3680762455409692 12.8270646182595804
  2.5219099625783854  4.3680762455409692 12.8270646182595804
 -0.0000000252191328  2.9120508352140666 15.6775234096485647
  5.0438199503759025  2.9120508352140666 15.6775234096485647
 -2.5219100130166505  7.2801270661947743 15.6775234096485647
  2.5219099625783850  7.2801270661947743 15.6775234096485647
  2.5219099625783854  1.4560254248871638  1.4252294527036566
  7.5657299381734200  1.4560254248871638  1.4252294527036566
 -0.0000000252191327  5.8241016558678718  1.4252294527036566
  5.0438199503759025  5.8241016558678718  1.4252294527036566
 10.0876399259709384  0.0000000145602619  4.2756882440926383
  5.0438199503759034  0.0000000145602619  4.2756882440926383
  7.5657299381734200  4.3680762455409701  4.2756882440926383
  2.5219099625783858  4.3680762455409701  4.2756882440926383
  0.6472710142220510  4.0331571617941169  7.1261470354816181
  5.6910909898170878  4.0331571617941169  7.1261470354816181
 -1.8746389735754665  8.4012333927748237  7.1261470354816181
  3.1691810020195690  8.4012333927748237  7.1261470354816181
 -1.2945421041014988  2.9120508352140662  7.1261470354816181
  3.7492778714935371  2.9120508352140662  7.1261470354816181
 -3.8164520918990164  7.2801270661947743  7.1261470354816181
  1.2273678836960196  7.2801270661947743  7.1261470354816181
  1.8746389231372027  2.5771317514672099  9.9766058268705997
  6.9184588987322391  2.5771317514672099  9.9766058268705997
 -0.6472710646603150  6.9452079824479167  9.9766058268705997
  4.3965489109347216  6.9452079824479167  9.9766058268705997
  1.8746389231372043  0.3349190983071156  9.9766058268705997
  6.9184588987322391  0.3349190983071156  9.9766058268705997
 -0.6472710646603131  4.7029953292878215  9.9766058268705997
  4.3965489109347207  4.7029953292878215  9.9766058268705997
  3.8164520414607477  1.4560254248871645  9.9766058268705997
  8.8602720170557827  1.4560254248871645  9.9766058268705997
  1.2945420536632302  5.8241016558678700  9.9766058268705997
  6.3383620292582661  5.8241016558678700  9.9766058268705997
  0.6472710142220512  1.7909445086340181  7.1261470354816181
  5.6910909898170887  1.7909445086340181  7.1261470354816181
 -1.8746389735754665  6.1590207396147267  7.1261470354816181
  3.1691810020195699  6.1590207396147267  7.1261470354816181
  0.6472710142220515  1.1211063411403095 12.8270646182595804
  5.6910909898170861  1.1211063411403095 12.8270646182595804
 -1.8746389735754665  5.4891825721210177 12.8270646182595804
  3.1691810020195681  5.4891825721210177 12.8270646182595804
  3.7492778714935393  0.0000000145602614 12.8270646182595804
  8.7930978470885766  0.0000000145602614 12.8270646182595804
  1.2273678836960220  4.3680762455409692 12.8270646182595804
  6.2711878592910555  4.3680762455409692 12.8270646182595804
 -0.6472710646603163  4.0331571617941151 15.6775234096485647
  4.3965489109347189  4.0331571617941151 15.6775234096485647
 -3.1691810524578345  8.4012333927748255 15.6775234096485647
  1.8746389231372016  8.4012333927748255 15.6775234096485647
 -0.6472710646603148  1.7909445086340183 15.6775234096485647
  4.3965489109347207  1.7909445086340183 15.6775234096485647
 -3.1691810524578328  6.1590207396147258 15.6775234096485647
  1.8746389231372020  6.1590207396147258 15.6775234096485647
  1.2945420536632337  2.9120508352140670 15.6775234096485647
  6.3383620292582696  2.9120508352140670 15.6775234096485647
 -1.2273679341342836  7.2801270661947743 15.6775234096485647
  3.8164520414607521  7.2801270661947743 15.6775234096485647
  8.2130009776146053  3.2469699189609220 12.8270646182595804
  3.1691810020195672  3.2469699189609220 12.8270646182595804
  5.6910909898170852  7.6150461499416293 12.8270646182595804
  0.6472710142220500  7.6150461499416293 12.8270646182595804
  3.1691810020195699  2.5771317514672103  1.4252294527036566
  8.2130009776146071  2.5771317514672103  1.4252294527036566
  0.6472710142220520  6.9452079824479185  1.4252294527036566
  5.6910909898170869  6.9452079824479185  1.4252294527036566
  1.2273678836960185  1.4560254248871638  1.4252294527036566
  6.2711878592910546  1.4560254248871638  1.4252294527036566
 -1.2945421041014993  5.8241016558678718  1.4252294527036566
  3.7492778714935362  5.8241016558678718  1.4252294527036566
  9.4403688865297575  1.1211063411403090  4.2756882440926383
  4.3965489109347189  1.1211063411403090  4.2756882440926383
  6.9184588987322373  5.4891825721210177  4.2756882440926383
  1.8746389231372012  5.4891825721210177  4.2756882440926383
  1.8746389231372051  3.2469699189609220  4.2756882440926383
  6.9184588987322400  3.2469699189609220  4.2756882440926383
 -0.6472710646603127  7.6150461499416302  4.2756882440926383
  4.3965489109347224  7.6150461499416302  4.2756882440926383
  1.2945420536632348  0.0000000145602621  4.2756882440926383
  6.3383620292582696  0.0000000145602621  4.2756882440926383
 -1.2273679341342822  4.3680762455409701  4.2756882440926383
  3.8164520414607521  4.3680762455409701  4.2756882440926383
  3.1691810020195694  0.3349190983071157  1.4252294527036566
  8.2130009776146053  0.3349190983071157  1.4252294527036566
  0.6472710142220512  4.7029953292878233  1.4252294527036566
  5.6910909898170878  4.7029953292878233  1.4252294527036566
 10.0876399259709402  0.0000000145602614  8.5513764311761093
  5.0438199503759034  0.0000000145602614  8.5513764311761093
  7.5657299381734191  4.3680762455409701  8.5513764311761093
  2.5219099625783858  4.3680762455409701  8.5513764311761093
  2.5219099625783858  1.4560254248871645  5.7009176397871286
  7.5657299381734218  1.4560254248871645  5.7009176397871286
 -0.0000000252191320  5.8241016558678718  5.7009176397871286
  5.0438199503759042  5.8241016558678718  5.7009176397871286
  2.5219099625783850  1.4560254248871640 14.2522940139540708
  7.5657299381734209  1.4560254248871640 14.2522940139540708
 -0.0000000252191329  5.8241016558678709 14.2522940139540708
  5.0438199503759034  5.8241016558678709 14.2522940139540708
 -0.0000000252191322  2.9120508352140670 11.4018352225650919
  5.0438199503759034  2.9120508352140670 11.4018352225650919
 -2.5219100130166501  7.2801270661947743 11.4018352225650919
  2.5219099625783863  7.2801270661947743 11.4018352225650919
 -0.0000000252191318  2.9120508352140662  2.8504588483981479
  5.0438199503759051  2.9120508352140662  2.8504588483981479
 -2.5219100130166487  7.2801270661947735  2.8504588483981479
  2.5219099625783867  7.2801270661947735  2.8504588483981479
 10.0876399259709402  0.0000000145602621  0.0000000570091663
  5.0438199503759025  0.0000000145602621  0.0000000570091663
  7.5657299381734200  4.3680762455409701  0.0000000570091663
  2.5219099625783863  4.3680762455409701  0.0000000570091663
