C  O  Ca
 1.0000000000000000
     9.7308472759518434    0.0000000000000000    0.0000000000000000
    -4.8654236379759199    8.4271609413208974    0.0000000000000000
    -0.0000000000000009    0.0000000000000001   16.4700867739304861
 C   O   Ca 
  24  72  24
Cartesian
 -0.0000000243271461  2.8090536611522321  6.8625362107046453
  4.8654236136487761  2.8090536611522321  6.8625362107046453
 -2.4327118433151065  7.0226341318126817  6.8625362107046453
  2.4327117946608157  7.0226341318126817  6.8625362107046453
  2.4327117946608108  1.4045268375987492  9.6075506730263918
  7.2981354326367329  1.4045268375987492  9.6075506730263918
 -0.0000000243271494  5.6181073082591979  9.6075506730263918
  4.8654236136487734  5.6181073082591979  9.6075506730263918
  9.7308472516246933  0.0000000140452663 12.3525651353481400
  4.8654236136487716  0.0000000140452663 12.3525651353481400
  7.2981354326367347  4.2135804847057150 12.3525651353481400
  2.4327117946608112  4.2135804847057150 12.3525651353481400
 -0.0000000243271454  2.8090536611522321 15.0975795976698812
  4.8654236136487752  2.8090536611522321 15.0975795976698812
 -2.4327118433151051  7.0226341318126817 15.0975795976698812
  2.4327117946608152  7.0226341318126817 15.0975795976698812
  2.4327117946608103  1.4045268375987492  1.3725072860611514
  7.2981354326367303  1.4045268375987492  1.3725072860611514
 -0.0000000243271498  5.6181073082591979  1.3725072860611514
  4.8654236136487707  5.6181073082591979  1.3725072860611514
  9.7308472516246916  0.0000000140452663  4.1175217483828979
  4.8654236136487725  0.0000000140452663  4.1175217483828979
  7.2981354326367356  4.2135804847057150  4.1175217483828979
  2.4327117946608117  4.2135804847057150  4.1175217483828979
  0.6411077531745701  3.9194849049127569  6.8625362107046453
  5.5065313911504914  3.9194849049127569  6.8625362107046453
 -1.7916040658133898  8.1330653755732047  6.8625362107046453
  3.0738195721625310  8.1330653755732047  6.8625362107046453
 -1.2822155793305701  2.8090536611522321  6.8625362107046453
  3.5832080586453521  2.8090536611522321  6.8625362107046453
 -3.7149273983185300  7.0226341318126817  6.8625362107046453
  1.1504962396573919  7.0226341318126817  6.8625362107046453
  1.7916040171591010  2.5149580813592736  9.6075506730263918
  6.6570276551350220  2.5149580813592736  9.6075506730263918
 -0.6411078018288594  6.7285385520197227  9.6075506730263918
  4.2243158361470634  6.7285385520197227  9.6075506730263918
  1.7916040171591008  0.2940955938382241  9.6075506730263918
  6.6570276551350229  0.2940955938382241  9.6075506730263918
 -0.6411078018288593  4.5076760644986731  9.6075506730263918
  4.2243158361470625  4.5076760644986731  9.6075506730263918
  3.7149273496642312  1.4045268375987490  9.6075506730263918
  8.5803509876401538  1.4045268375987490  9.6075506730263918
  1.2822155306762713  5.6181073082591979  9.6075506730263918
  6.1476391686521934  5.6181073082591979  9.6075506730263918
  0.6411077531745600  1.6986224173917079  6.8625362107046453
  5.5065313911504816  1.6986224173917079  6.8625362107046453
 -1.7916040658133996  5.9122028880521551  6.8625362107046453
  3.0738195721625208  5.9122028880521551  6.8625362107046453
  0.6411077531745605  1.1104312578057904 12.3525651353481400
  5.5065313911504816  1.1104312578057904 12.3525651353481400
 -1.7916040658133994  5.3240117284662398 12.3525651353481400
  3.0738195721625217  5.3240117284662398 12.3525651353481400
  3.5832080586453516  0.0000000140452663 12.3525651353481400
  8.4486316966212733  0.0000000140452663 12.3525651353481400
  1.1504962396573917  4.2135804847057150 12.3525651353481400
  6.0159198776333129  4.2135804847057150 12.3525651353481400
 -0.6411078018288507  3.9194849049127574 15.0975795976698812
  4.2243158361470705  3.9194849049127574 15.0975795976698812
 -3.0738196208168111  8.1330653755732065 15.0975795976698812
  1.7916040171591103  8.1330653755732065 15.0975795976698812
 -0.6411078018288600  1.6986224173917075 15.0975795976698812
  4.2243158361470616  1.6986224173917075 15.0975795976698812
 -3.0738196208168200  5.9122028880521551 15.0975795976698812
  1.7916040171591021  5.9122028880521551 15.0975795976698812
  1.2822155306762701  2.8090536611522321 15.0975795976698812
  6.1476391686521916  2.8090536611522321 15.0975795976698812
 -1.1504962883116903  7.0226341318126817 15.0975795976698812
  3.7149273496642317  7.0226341318126817 15.0975795976698812
  7.9392432101384447  3.1031492409451902 12.3525651353481400
  3.0738195721625212  3.1031492409451902 12.3525651353481400
  5.5065313911504825  7.3167297116056389 12.3525651353481400
  0.6411077531745614  7.3167297116056389 12.3525651353481400
  3.0738195721625226  2.5149580813592736  1.3725072860611514
  7.9392432101384447  2.5149580813592736  1.3725072860611514
  0.6411077531745624  6.7285385520197227  1.3725072860611514
  5.5065313911504861  6.7285385520197227  1.3725072860611514
  1.1504962396573908  1.4045268375987492  1.3725072860611514
  6.0159198776333129  1.4045268375987492  1.3725072860611514
 -1.2822155793305690  5.6181073082591979  1.3725072860611514
  3.5832080586453534  5.6181073082591979  1.3725072860611514
  9.0897394741229842  1.1104312578057909  4.1175217483828979
  4.2243158361470625  1.1104312578057909  4.1175217483828979
  6.6570276551350238  5.3240117284662398  4.1175217483828979
  1.7916040171591023  5.3240117284662398  4.1175217483828979
  1.7916040171591003  3.1031492409451897  4.1175217483828979
  6.6570276551350220  3.1031492409451897  4.1175217483828979
 -0.6411078018288594  7.3167297116056380  4.1175217483828979
  4.2243158361470625  7.3167297116056380  4.1175217483828979
  1.2822155306762710  0.0000000140452661  4.1175217483828979
  6.1476391686521925  0.0000000140452661  4.1175217483828979
 -1.1504962883116887  4.2135804847057141  4.1175217483828979
  3.7149273496642312  4.2135804847057141  4.1175217483828979
  3.0738195721625221  0.2940955938382245  1.3725072860611514
  7.9392432101384438  0.2940955938382245  1.3725072860611514
  0.6411077531745625  4.5076760644986731  1.3725072860611514
  5.5065313911504843  4.5076760644986731  1.3725072860611514
  9.7359339725719476  0.0000000140452663  8.2436530452248373
  4.8654236136487716  0.0000000140452663  8.2350434418655194
  7.2981354326367329  4.2135804847057150  8.2350434418655194
  2.4327117946608117  4.2135804847057150  8.2350434418655194
  2.4327117946608108  1.4045268375987494  5.4900289795437702
  7.2981354326367338  1.4045268375987494  5.4900289795437702
 -0.0000000243271491  5.6181073082591979  5.4900289795437702
  4.8654236136487743  5.6181073082591979  5.4900289795437702
  2.4327117946608094  1.4045268375987492 13.7250723665090106
  7.2981354326367311  1.4045268375987492 13.7250723665090106
 -0.0000000243271500  5.6181073082591979 13.7250723665090106
  4.8654236136487716  5.6181073082591979 13.7250723665090106
 -0.0000000243271459  2.8090536611522321 10.9800579041872659
  4.8654236136487752  2.8090536611522321 10.9800579041872659
 -2.4327118433151051  7.0226341318126817 10.9800579041872659
  2.4327117946608166  7.0226341318126817 10.9800579041872659
 -0.0000000243271459  2.8090536611522321  2.7450145172220255
  4.8654236136487761  2.8090536611522321  2.7450145172220255
 -2.4327118433151056  7.0226341318126817  2.7450145172220255
  2.4327117946608161  7.0226341318126817  2.7450145172220255
  9.7308472516246916  0.0000000140452665  0.0000000549002781
  4.8654236136487716  0.0000000140452665  0.0000000549002781
  7.2981354326367356  4.2135804847057150  0.0000000549002781
  2.4327117946608121  4.2135804847057150  0.0000000549002781
