C  O  Ca
 1.0000000000000000
    10.4334759699919211    0.0000000000000000    0.0000000000000000
    -5.2167379849959614    9.0356552397874896    0.0000000000000000
     0.0000000000000010    0.0000000000000002   17.7058467507706467
 C   O   Ca 
  24  72  24
Cartesian
 -0.0000000260837314  3.0118850949886098  7.3774362051739217
  5.2167379589122316  3.0118850949886098  7.3774362051739217
 -2.6083690185817119  7.5297127148823542  7.3774362051739217
  2.6083689664142513  7.5297127148823542  7.3774362051739217
  2.6083689664142433  1.5059425550240284 10.3284106636356974
  7.8251069514102030  1.5059425550240284 10.3284106636356974
 -0.0000000260837377  6.0237701749177726 10.3284106636356974
  5.2167379589122227  6.0237701749177726 10.3284106636356974
 10.4334759439081832  0.0000000150594470 13.2793851220974695
  5.2167379589122227  0.0000000150594470 13.2793851220974695
  7.8251069514102056  4.5178276349531918 13.2793851220974695
  2.6083689664142429  4.5178276349531918 13.2793851220974695
 -0.0000000260837309  3.0118850949886098 16.2303595805592451
  5.2167379589122307  3.0118850949886098 16.2303595805592451
 -2.6083690185817114  7.5297127148823542 16.2303595805592451
  2.6083689664142500  7.5297127148823542 16.2303595805592451
  2.6083689664142429  1.5059425550240282  1.4754872882503731
  7.8251069514102021  1.5059425550240282  1.4754872882503731
 -0.0000000260837382  6.0237701749177726  1.4754872882503731
  5.2167379589122218  6.0237701749177726  1.4754872882503731
 10.4334759439081832  0.0000000150594470  4.4264617467121488
  5.2167379589122227  0.0000000150594470  4.4264617467121488
  7.8251069514102047  4.5178276349531918  4.4264617467121488
  2.6083689664142433  4.5178276349531918  4.4264617467121488
  0.6500412862446989  4.1377896749601959  7.3874362051739215
  5.8667792712406603  4.1377896749601959  7.3774362051739217
 -1.9583277062532816  8.6556172948539398  7.3774362051739217
  3.2584102787426801  8.6556172948539398  7.3774362051739217
 -1.3000826507405940  3.0118850949886098  7.3774362051739217
  3.9166553342553678  3.0118850949886098  7.3774362051739217
 -3.9084516432385739  7.5297127148823542  7.3774362051739217
  1.3082863417573876  7.5297127148823542  7.3774362051739217
  1.9583276540858130  2.6318471349956130 10.3284106636356974
  7.1750656390817742  2.6318471349956130 10.3284106636356974
 -0.6500413384121680  7.1496747548893582 10.3284106636356974
  4.5666966465837930  7.1496747548893582 10.3284106636356974
  1.9583276540858143  0.3800379750524416 10.3284106636356974
  7.1750656390817742  0.3800379750524416 10.3284106636356974
 -0.6500413384121666  4.8978655949461860 10.3284106636356974
  4.5666966465837922  4.8978655949461860 10.3284106636356974
  3.9084515910711004  1.5059425550240286 10.3284106636356974
  9.1251895760670578  1.5059425550240286 10.3284106636356974
  1.3000825985731204  6.0237701749177726 10.3284106636356974
  6.5168205835690785  6.0237701749177726 10.3284106636356974
  0.6500412862446995  1.8859805150170237  7.3774362051739217
  5.8667792712406603  1.8859805150170237  7.3774362051739217
 -1.9583277062532809  6.4038081349107685  7.3774362051739217
  3.2584102787426805  6.4038081349107685  7.3774362051739217
  0.6500412862446898  1.1259045950310336 13.2793851220974695
  5.8667792712406515  1.1259045950310336 13.2793851220974695
 -1.9583277062532907  5.6437322149247784 13.2793851220974695
  3.2584102787426703  5.6437322149247784 13.2793851220974695
  3.9166553342553647  0.0000000150594470 13.2793851220974695
  9.1333933192513221  0.0000000150594470 13.2793851220974695
  1.3082863417573849  4.5178276349531918 13.2793851220974695
  6.5250243267533463  4.5178276349531918 13.2793851220974695
 -0.6500413384121574  4.1377896749601950 16.2303595805592451
  4.5666966465838028  4.1377896749601950 16.2303595805592451
 -3.2584103309101380  8.6556172948539398 16.2303595805592451
  1.9583276540858223  8.6556172948539398 16.2303595805592451
 -0.6500413384121565  1.8859805150170235 16.2303595805592451
  4.5666966465838037  1.8859805150170235 16.2303595805592451
 -3.2584103309101371  6.4038081349107676 16.2303595805592451
  1.9583276540858232  6.4038081349107676 16.2303595805592451
  1.3000825985731188  3.0118850949886098 16.2303595805592451
  6.5168205835690820  3.0118850949886098 16.2303595805592451
 -1.3082863939248615  7.5297127148823542 16.2303595805592451
  3.9084515910710995  7.5297127148823542 16.2303595805592451
  8.4751482637386300  3.3919230549816066 13.2793851220974695
  3.2584102787426721  3.3919230549816066 13.2793851220974695
  5.8667792712406515  7.9097506748753519 13.2793851220974695
  0.6500412862446910  7.9097506748753519 13.2793851220974695
  3.2584102787426685  2.6318471349956134  1.4754872882503731
  8.4751482637386264  2.6318471349956134  1.4754872882503731
  0.6500412862446877  7.1496747548893582  1.4754872882503731
  5.8667792712406479  7.1496747548893582  1.4754872882503731
  1.3082863417573860  1.5059425550240282  1.4754872882503731
  6.5250243267533463  1.5059425550240282  1.4754872882503731
 -1.3000826507405945  6.0237701749177726  1.4754872882503731
  3.9166553342553669  6.0237701749177726  1.4754872882503731
  9.7834346315797553  1.1259045950310327  4.4264617467121488
  4.5666966465837939  1.1259045950310327  4.4264617467121488
  7.1750656390817760  5.6437322149247757  4.4264617467121488
  1.9583276540858143  5.6437322149247757  4.4264617467121488
  1.9583276540858146  3.3919230549816062  4.4264617467121488
  7.1750656390817742  3.3919230549816062  4.4264617467121488
 -0.6500413384121660  7.9097506748753510  4.4264617467121488
  4.5666966465837939  7.9097506748753510  4.4264617467121488
  1.3000825985731188  0.0000000150594472  4.4264617467121488
  6.5168205835690793  0.0000000150594472  4.4264617467121488
 -1.3082863939248612  4.5178276349531918  4.4264617467121488
  3.9084515910711000  4.5178276349531918  4.4264617467121488
  3.2584102787426690  0.3800379750524426  1.4754872882503731
  8.4751482637386300  0.3800379750524426  1.4754872882503731
  0.6500412862446892  4.8978655949461860  1.4754872882503731
  5.8667792712406497  4.8978655949461860  1.4754872882503731
 10.4334759439081832  0.0000000150594470  8.8529234344048096
  5.2167379589122227  0.0000000150594470  8.8529234344048096
  7.8251069514102074  4.5178276349531918  8.8529234344048096
  2.6083689664142415  4.5178276349531918  8.8529234344048096
  2.6083689664142429  1.5059425550240282  5.9019489759430348
  7.8251069514102021  1.5059425550240282  5.9019489759430348
 -0.0000000260837379  6.0237701749177726  5.9019489759430348
  5.2167379589122218  6.0237701749177726  5.9019489759430348
  2.6083689664142420  1.5059425550240284 14.7548723513283591
  7.8251069514102030  1.5059425550240284 14.7548723513283591
 -0.0000000260837388  6.0237701749177726 14.7548723513283591
  5.2167379589122227  6.0237701749177726 14.7548723513283591
 -0.0000000260837304  3.0118850949886098 11.8038978928665834
  5.2167379589122307  3.0118850949886098 11.8038978928665834
 -2.6083690185817106  7.5297127148823542 11.8038978928665834
  2.6083689664142500  7.5297127148823542 11.8038978928665834
 -0.0000000260837310  3.0118850949886102  2.9509745174812609
  5.2167379589122289  3.0118850949886102  2.9509745174812609
 -2.6083690185817119  7.5297127148823551  2.9509745174812609
  2.6083689664142482  7.5297127148823551  2.9509745174812609
 10.4334759439081832  0.0000000150594472  0.0000000590194862
  5.2167379589122236  0.0000000150594472  0.0000000590194862
  7.8251069514102047  4.5178276349531918  0.0000000590194862
  2.6083689664142429  4.5178276349531918  0.0000000590194862
