Si
 1.0000000000000000
    10.7113626860193225    0.0000000000000000    0.0000000000000000
     0.0000000000000000   10.7113626860193225    0.0000000000000000
     0.0000000000000000    0.0000000000000000   10.7113626860193225
 Si 
  64
Cartesian
  1.3489203393024813  4.0167610081141563  1.3389203393024811
  6.6946016823121424  4.0167610081141563  1.3389203393024811
  1.3389203393024813  9.3724423511238175  1.3389203393024811
  6.6946016823121424  9.3724423511238175  1.3389203393024811
  1.3389203393024813  4.0167610081141563  6.6946016823121424
  6.6946016823121424  4.0167610081141563  6.6946016823121424
  1.3389203393024813  9.3724423511238175  6.6946016823121424
  6.6946016823121424  9.3724423511238175  6.6946016823121424
  0.0000000035500660  0.0000000008569105  2.6778406750548962
  5.3556813465597273  0.0000000008569105  2.6778406750548962
  0.0000000035500660  5.3556813438665714  2.6778406750548962
  5.3556813465597273  5.3556813438665714  2.6778406750548962
  0.0000000035500660  0.0000000008569105  8.0335220180645575
  5.3556813465597273  0.0000000008569105  8.0335220180645575
  0.0000000035500660  5.3556813438665714  8.0335220180645575
  5.3556813465597273  5.3556813438665714  8.0335220180645575
  1.3389203393024813  1.3389203366093256  4.0167610108073113
  6.6946016823121424  1.3389203366093256  4.0167610108073113
  1.3389203393024813  6.6946016796189864  4.0167610108073113
  6.6946016823121424  6.6946016796189864  4.0167610108073113
  1.3389203393024813  1.3389203366093256  9.3724423538169734
  6.6946016823121424  1.3389203366093256  9.3724423538169734
  1.3389203393024813  6.6946016796189864  9.3724423538169734
  6.6946016823121424  6.6946016796189864  9.3724423538169734
  0.0000000035500660  2.6778406723617416  0.0000000035500656
  5.3556813465597273  2.6778406723617416  0.0000000035500656
  0.0000000035500660  8.0335220153714033  0.0000000035500656
  5.3556813465597273  8.0335220153714033  0.0000000035500656
  0.0000000035500660  2.6778406723617416  5.3556813465597273
  5.3556813465597273  2.6778406723617416  5.3556813465597273
  0.0000000035500660  8.0335220153714033  5.3556813465597273
  5.3556813465597273  8.0335220153714033  5.3556813465597273
  4.0167610108073122  4.0167610081141563  4.0167610108073113
  9.3724423538169734  4.0167610081141563  4.0167610108073113
  4.0167610108073122  9.3724423511238175  4.0167610108073113
  9.3724423538169734  9.3724423511238175  4.0167610108073113
  4.0167610108073122  4.0167610081141563  9.3724423538169734
  9.3724423538169734  4.0167610081141563  9.3724423538169734
  4.0167610108073122  9.3724423511238175  9.3724423538169734
  9.3724423538169734  9.3724423511238175  9.3724423538169734
  2.6778406750548971  0.0000000008569105  0.0000000035500656
  8.0335220180645592  0.0000000008569105  0.0000000035500656
  2.6778406750548971  5.3556813438665714  0.0000000035500656
  8.0335220180645592  5.3556813438665714  0.0000000035500656
  2.6778406750548971  0.0000000008569105  5.3556813465597273
  8.0335220180645592  0.0000000008569105  5.3556813465597273
  2.6778406750548971  5.3556813438665714  5.3556813465597273
  8.0335220180645592  5.3556813438665714  5.3556813465597273
  4.0167610108073122  1.3389203366093256  1.3389203393024811
  9.3724423538169734  1.3389203366093256  1.3389203393024811
  4.0167610108073122  6.6946016796189864  1.3389203393024811
  9.3724423538169734  6.6946016796189864  1.3389203393024811
  4.0167610108073122  1.3389203366093256  6.6946016823121424
  9.3724423538169734  1.3389203366093256  6.6946016823121424
  4.0167610108073122  6.6946016796189864  6.6946016823121424
  9.3724423538169734  6.6946016796189864  6.6946016823121424
  2.6778406750548971  2.6778406723617416  2.6778406750548962
  8.0335220180645592  2.6778406723617416  2.6778406750548962
  2.6778406750548971  8.0335220153714033  2.6778406750548962
  8.0335220180645592  8.0335220153714033  2.6778406750548962
  2.6778406750548971  2.6778406723617416  8.0335220180645575
  8.0335220180645592  2.6778406723617416  8.0335220180645575
  2.6778406750548971  8.0335220153714033  8.0335220180645575
  8.0335220180645592  8.0335220153714033  8.0335220180645575
