C  O  Ca
 1.0000000000000000
    10.2328322013382262    0.0000000000000000    0.0000000000000000
    -5.1164161006691140    8.8618926390223436    0.0000000000000000
    -0.0000000000000003    0.0000000000000006   17.3653496978712099
 C   O   Ca 
  24  72  24
Cartesian
 -0.0050768307080770  2.9539642277772900  7.2269469778763709
  5.1164160750869723  2.9539642277772900  7.2355624319974989
 -2.5582080759166974  7.3849105472884622  7.2355624319974989
  2.5582080247524144  7.3849105472884622  7.2355624319974989
  2.5582080247524108  1.4769821212735665 10.1297873816427000
  7.6746241254215244  1.4769821212735665 10.1297873816427000
 -0.0000000255821468  5.9079284407847386 10.1297873816427000
  5.1164160750869669  5.9079284407847386 10.1297873816427000
 10.2328321757560960  0.0000000147698422 13.0240123312879028
  5.1164160750869856  0.0000000147698422 13.0240123312879028
  7.6746241254215404  4.4309463342810158 13.0240123312879028
  2.5582080247524273  4.4309463342810158 13.0240123312879028
 -0.0000000255821402  2.9539642277772900 15.9182372809331021
  5.1164160750869723  2.9539642277772900 15.9182372809331021
 -2.5582080759166974  7.3849105472884631 15.9182372809331021
  2.5582080247524139  7.3849105472884631 15.9182372809331021
  2.5582080247524108  1.4769821212735661  1.4471125327070959
  7.6746241254215244  1.4769821212735661  1.4471125327070959
 -0.0000000255821467  5.9079284407847386  1.4471125327070959
  5.1164160750869669  5.9079284407847386  1.4471125327070959
 10.2328321757560960  0.0000000147698422  4.3413374823522970
  5.1164160750869838  0.0000000147698422  4.3413374823522970
  7.6746241254215395  4.4309463342810140  4.3413374823522970
  2.5582080247524273  4.4309463342810140  4.3413374823522970
  0.6479806927258057  4.0762997542116484  7.2355624319974989
  5.7643967933949192  4.0762997542116484  7.2355624319974989
 -1.9102273576087518  8.5072460737228202  7.2355624319974989
  3.2061887430603613  8.5072460737228202  7.2355624319974989
 -1.2959614621980411  2.9539642277772904  7.2355624319974989
  3.8204546384710714  2.9539642277772904  7.2355624319974989
 -3.8541695125325983  7.3849105472884631  7.2355624319974989
  1.2622465881365137  7.3849105472884631  7.2355624319974989
  1.9102273064444539  2.5993176477079234 10.1297873816427000
  7.0266434071135677  2.5993176477079234 10.1297873816427000
 -0.6479807438901033  7.0302639672190956 10.1297873816427000
  4.4684353567790103  7.0302639672190956 10.1297873816427000
  1.9102273064444637  0.3546465948392095 10.1297873816427000
  7.0266434071135757  0.3546465948392095 10.1297873816427000
 -0.6479807438900940  4.7855929143503815 10.1297873816427000
  4.4684353567790209  4.7855929143503815 10.1297873816427000
  3.8541694613683219  1.4769821212735665 10.1297873816427000
  8.9705855620374315  1.4769821212735665 10.1297873816427000
  1.2959614110337643  5.9079284407847386 10.1297873816427000
  6.4123775117028767  5.9079284407847386 10.1297873816427000
  0.6479806927258144  1.8316287013429333  7.2355624319974989
  5.7643967933949272  1.8316287013429333  7.2355624319974989
 -1.9102273576087430  6.2625750208541051  7.2355624319974989
  3.2061887430603702  6.2625750208541051  7.2355624319974989
  0.6479806927258196  1.1223355412041989 13.0240123312879028
  5.7643967933949316  1.1223355412041989 13.0240123312879028
 -1.9102273576087381  5.5532818607153729 13.0240123312879028
  3.2061887430603742  5.5532818607153729 13.0240123312879028
  3.8204546384710545  0.0000000147698427 13.0240123312879028
  8.9368707391401685  0.0000000147698427 13.0240123312879028
  1.2622465881364979  4.4309463342810158 13.0240123312879028
  6.3786626888056110  4.4309463342810158 13.0240123312879028
 -0.6479807438900987  4.0762997542116501 15.9182372809331021
  4.4684353567790138  4.0762997542116501 15.9182372809331021
 -3.2061887942246563  8.5072460737228202 15.9182372809331021
  1.9102273064444564  8.5072460737228202 15.9182372809331021
 -0.6479807438900891  1.8316287013429338 15.9182372809331021
  4.4684353567790245  1.8316287013429338 15.9182372809331021
 -3.2061887942246465  6.2625750208541060 15.9182372809331021
  1.9102273064444673  6.2625750208541060 15.9182372809331021
  1.2959614110337658  2.9539642277772895 15.9182372809331021
  6.4123775117028803  2.9539642277772895 15.9182372809331021
 -1.2622466393007912  7.3849105472884631 15.9182372809331021
  3.8541694613683219  7.3849105472884631 15.9182372809331021
  8.3226048437294935  3.3086108078466565 13.0240123312879028
  3.2061887430603826  3.3086108078466565 13.0240123312879028
  5.7643967933949387  7.7395571273578305 13.0240123312879028
  0.6479806927258258  7.7395571273578305 13.0240123312879028
  3.2061887430603488  2.5993176477079234  1.4471125327070959
  8.3226048437294633  2.5993176477079234  1.4471125327070959
  0.6479806927257914  7.0302639672190965  1.4471125327070959
  5.7643967933949058  7.0302639672190965  1.4471125327070959
  1.2622465881364979  1.4769821212735665  1.4471125327070959
  6.3786626888056093  1.4769821212735665  1.4471125327070959
 -1.2959614621980591  5.9079284407847386  1.4471125327070959
  3.8204546384710536  5.9079284407847386  1.4471125327070959
  9.5848514574481420  1.1223355412041991  4.3413374823522970
  4.4684353567790289  1.1223355412041991  4.3413374823522970
  7.0266434071135837  5.5532818607153720  4.3413374823522970
  1.9102273064444701  5.5532818607153720  4.3413374823522970
  1.9102273064444535  3.3086108078466583  4.3413374823522970
  7.0266434071135677  3.3086108078466583  4.3413374823522970
 -0.6479807438901034  7.7395571273578296  4.3413374823522970
  4.4684353567790112  7.7395571273578296  4.3413374823522970
  1.2959614110337760  0.0000000147698420  4.3413374823522970
  6.4123775117028874  0.0000000147698420  4.3413374823522970
 -1.2622466393007810  4.4309463342810140  4.3413374823522970
  3.8541694613683317  4.4309463342810140  4.3413374823522970
  3.2061887430603675  0.3546465948392092  1.4471125327070959
  8.3226048437294811  0.3546465948392092  1.4471125327070959
  0.6479806927258103  4.7855929143503815  1.4471125327070959
  5.7643967933949236  4.7855929143503815  1.4471125327070959
 10.2328321757560960  0.0000000147698422  8.6826749068201003
  5.1164160750869838  0.0000000147698422  8.6826749068201003
  7.6746241254215395  4.4309463342810140  8.6826749068201003
  2.5582080247524273  4.4309463342810140  8.6826749068201003
  2.5582080247524108  1.4769821212735663  5.7884499571748984
  7.6746241254215244  1.4769821212735663  5.7884499571748984
 -0.0000000255821468  5.9079284407847386  5.7884499571748984
  5.1164160750869669  5.9079284407847386  5.7884499571748984
  2.5582080247524104  1.4769821212735663 14.4711248061105024
  7.6746241254215244  1.4769821212735663 14.4711248061105024
 -0.0000000255821463  5.9079284407847386 14.4711248061105024
  5.1164160750869678  5.9079284407847386 14.4711248061105024
 -0.0000000255821404  2.9539642277772904 11.5768998564653014
  5.1164160750869714  2.9539642277772904 11.5768998564653014
 -2.5582080759166974  7.3849105472884631 11.5768998564653014
  2.5582080247524139  7.3849105472884631 11.5768998564653014
 -0.0000000255821409  2.9539642277772913  2.8942250075296974
  5.1164160750869714  2.9539642277772913  2.8942250075296974
 -2.5582080759166979  7.3849105472884631  2.8942250075296974
  2.5582080247524139  7.3849105472884631  2.8942250075296974
 10.2328321757560960  0.0000000147698425  0.0000000578844954
  5.1164160750869856  0.0000000147698425  0.0000000578844954
  7.6746241254215386  4.4309463342810149  0.0000000578844954
  2.5582080247524286  4.4309463342810149  0.0000000578844954
