C  O  Ca
 1.0000000000000000
     5.1936364105136992    0.0000000000000000    0.0000000000000000
    -2.5968182052568500    4.4978210695246892    0.0000000000000000
    -0.0000000000000004   -0.0000000000000008   17.6107553052150898
 C   O   Ca 
   6  18   6
Selective dynamics
Cartesian
 -0.0000000259682030  2.9985473946758709  7.3378147692087952   T   T   T
  2.5968181792886345  1.4992737048343083 10.2729406534113110   T   T   T
 -0.0000000259682151  0.0000000149927457 13.2080665376138242   T   T   T
 -0.0000000259682030  2.9985473946758709 16.1431924218163410   T   T   T
  2.5968181792886345  1.4992737048343083  1.4675630008037652   T   T   T
 -0.0000000259682151  0.0000000149927457  4.4026888850062811   T   T   T
  0.6503374654866517  4.1249649719425623  7.3378147692087952   T   T   T
 -1.3006750088779178  2.9985473946758709  7.3378147692087952   T   T   T
  1.9464806878337835  2.6256912821010019 10.2729406534113110   T   T   T
  1.9464806878337833  0.3728561275676152 10.2729406534113110   T   T   T
  3.8974931621983360  1.4992737048343081 10.2729406534113110   T   T   T
  0.6503374654866362  1.8721298174091783  7.3378147692087952   T   T   T
  0.6503374654866365  1.1264175922594386 13.2080665376138242   T   T   T
  3.8929614016357821  0.0000000149927457 13.2080665376138242   T   T   T
 -0.6503375174230511  4.1249649719425623 16.1431924218163410   T   T   T
 -0.6503375174230664  1.8721298174091789 16.1431924218163410   T   T   T
  1.3006749569414868  2.9985473946758709 16.1431924218163410   T   T   T
 -1.9464807397702137  3.3714035072507405 13.2080665376138242   T   T   T
  3.2471556707434890  2.6256912821010019  1.4675630008037652   T   T   T
  1.2961431963789318  1.4992737048343083  1.4675630008037652   T   T   T
 -0.6503375174230663  1.1264175922594386  4.4026888850062811   T   T   T
  1.9464806878337833  3.3714035072507409  4.4026888850062811   T   T   T
  1.3006749569414868  0.0000000149927455  4.4026888850062811   T   T   T
  3.2471556707434885  0.3728561275676149  1.4675630008037652   T   T   T
 -0.0000000259682151  0.0000000149927448  8.8053777113100526   T   T   T
  2.5968181792886345  1.4992737048343086  5.8702518271075377   T   T   T
  2.5968181792886345  1.4992737048343079 14.6756294797150826   T   T   T
 -0.0000000259682030  2.9985473946758709 11.7405035955125676   T   T   T
 -0.0000000259682030  2.9985473946758705  2.9351259429050227   T   T   T
 -0.0000000259682151  0.0000000149927459  0.0000000587025077   T   T   T
