C  O  Ca
 1.0000000000000000
     4.8940035406763718   -0.0000000000000000    0.0000000000000000
    -2.4470017703381859    4.2383313924367272    0.0000000000000000
    -0.0000000000000009   -0.0000000000000008   16.5947501914526754
 C   O   Ca 
   6  18   6
Selective dynamics
Cartesian
 -0.0000000244700487  2.8255542757522631  6.9144793017544384   T   T   T
  2.4470017458681368  1.4127771449400210  9.6802710003298849   T   T   T
 -0.0000000244700487  0.0000000141277789 12.4460626989053296   T   T   T
 -0.0000000244700487  2.8255542757522631 15.2118543974807761   T   T   T
  2.4470017458681368  1.4127771449400210  1.3828959046035472   T   T   T
 -0.0000000244700487  0.0000000141277789  4.1486876031789937   T   T   T
  0.6432932072556430  3.9397708372663391  6.9144793017544384   T   T   T
 -1.2865864879214310  2.8255542757522631  6.9144793017544384   T   T   T
  1.8037085141424456  2.5269937064540970  9.6802710003298849   T   T   T
  1.8037085141424454  0.2985605834259432  9.6802710003298849   T   T   T
  3.7335882093195196  1.4127771449400208  9.6802710003298849   T   T   T
  0.6432932072556425  1.7113377142381858  6.9144793017544384   T   T   T
  0.6432932072556430  1.1142165756418563 12.4460626989053296   T   T   T
  3.6074170527549398  0.0000000141277789 12.4460626989053296   T   T   T
 -0.6432932561957398  3.9397708372663391 15.2118543974807761   T   T   T
 -0.6432932561957401  1.7113377142381849 15.2118543974807761   T   T   T
  1.2865864389813342  2.8255542757522631 15.2118543974807761   T   T   T
 -1.8037085630825429  3.1241148450504292 12.4460626989053296   T   T   T
  3.0902949775938304  2.5269937064540970  1.3828959046035472   T   T   T
  1.1604152824167544  1.4127771449400210  1.3828959046035472   T   T   T
 -0.6432932561957398  1.1142165756418563  4.1486876031789937   T   T   T
  1.8037085141424454  3.1241148450504284  4.1486876031789937   T   T   T
  1.2865864389813342  0.0000000141277787  4.1486876031789937   T   T   T
  3.0902949775938300  0.2985605834259440  1.3828959046035472   T   T   T
 -0.0000000244700487  0.0000000141277789  8.2973751510421607   T   T   T
  2.4470017458681368  1.4127771449400213  5.5315834524667160   T   T   T
  2.4470017458681368  1.4127771449400210 13.8289585481930519   T   T   T
 -0.0000000244700487  2.8255542757522631 11.0631668496176072   T   T   T
 -0.0000000244700487  2.8255542757522631  2.7657917538912695   T   T   T
 -0.0000000244700487  0.0000000141277792  0.0000000553158248   T   T   T
