C  O  Ca
0.98
     4.9938811639554812    0.0000000000000000    0.0000000000000000
    -2.4969405819777397    4.3248279514660473    0.0000000000000000
     0.0000000000000000    0.0000000000000014   16.9334185627068159
 C   O   Ca 
   6  18   6
Selective dynamics
Cartesian
 -0.0000000249694366  2.8832186487267997  7.0555911242392257   T   T   T
  2.4969405570083616  1.4416093315714504  9.8778275513570435   T   T   T
 -0.0000000249694054  0.0000000144160934 12.7000639784748302   T   T   T
 -0.0000000249694366  2.8832186487267997 15.5223004055926186   T   T   T
  2.4969405570083616  1.4416093315714504  1.4111182700036324   T   T   T
 -0.0000000249694054  0.0000000144160934  4.2333546971214151   T   T   T
  0.6460465397272285  4.0022041228364911  7.0555911242392257   T   T   T
 -1.2920931543631309  2.8832186487267997  7.0555911242392257   T   T   T
  1.8508939923113941  2.5605948056816183  9.8778275513570435   T   T   T
  1.8508939923115451  0.3226238574612706  9.8778275513570435   T   T   T
  3.7890336864019050  1.4416093315714507  9.8778275513570435   T   T   T
  0.6460465397273046  1.7642331746166224  7.0555911242392257   T   T   T
  0.6460465397273037  1.1189854885262767 12.7000639784748302   T   T   T
  3.7017880095924913  0.0000000144160934 12.7000639784748302   T   T   T
 -0.6460465896663433  4.0022041228364902 15.5223004055926186   T   T   T
 -0.6460465896662676  1.7642331746166222 15.5223004055926186   T   T   T
  1.2920931044240151  2.8832186487267997 15.5223004055926186   T   T   T
 -1.8508940422505036  3.2058424917719766 12.7000639784748302   T   T   T
  3.1429871217050871  2.5605948056816192  1.4111182700036324   T   T   T
  1.2048474276147532  1.4416093315714504  1.4111182700036324   T   T   T
 -0.6460465896662680  1.1189854885262760  4.2333546971214151   T   T   T
  1.8508939923113945  3.2058424917719766  4.2333546971214151   T   T   T
  1.2920931044241657  0.0000000144160936  4.2333546971214151   T   T   T
  3.1429871217050880  0.3226238574612711  1.4111182700036324   T   T   T
 -0.0000000249694059  0.0000000144160930  8.4667093377981040   T   T   T
  2.4969405570083616  1.4416093315714507  5.6444729106803502   T   T   T
  2.4969405570083612  1.4416093315714502 14.1111821920337430   T   T   T
 -0.0000000249694366  2.8832186487267997 11.2889457649159795   T   T   T
 -0.0000000249694370  2.8832186487267997  2.8222364835625235   T   T   T
 -0.0000000249694054  0.0000000144160936  0.0000000564447293   T   T   T
