C  O  Ca
 1.0000000000000000
     4.8656113898519999    0.0000000000000000    0.0000000000000000
    -2.4328056949260004    4.2137430685547406    0.0000000000000000
     0.0000000000000010    0.0000000000000001   16.5141070656226212
 C   O   Ca 
   6  18   6
Selective dynamics
Cartesian
 -0.0000000243280975  2.8091620597489908  6.8808779990564464   T   T   T
  2.4328056705978987  1.4045810368974103  9.6332291766602154   T   T   T
 -0.0000000243281018  0.0000000140458298 12.3855803542639862   T   T   T
 -0.0000000243280975  2.8091620597489908 15.1379315318677534   T   T   T
  2.4328056705978987  1.4045810368974103  1.3761756438489074   T   T   T
 -0.0000000243281018  0.0000000140458298  4.1285268214526765   T   T   T
  0.6411123154424260  3.9196012055908933  6.8808779990564464   T   T   T
 -1.2822247038691426  2.8091620597489908  6.8808779990564464   T   T   T
  1.7916933308273773  2.5150201827393124  9.6332291766602154   T   T   T
  1.7916933308273779  0.2941418910555076  9.6332291766602154   T   T   T
  3.7150303501389410  1.4045810368974105  9.6332291766602154   T   T   T
  0.6411123154424190  1.6987229139070885  6.8808779990564464   T   T   T
  0.6411123154424185  1.1104391598877328 12.3855803542639862   T   T   T
  3.5833866859828571  0.0000000140458298 12.3855803542639862   T   T   T
 -0.6411123640986151  3.9196012055908924 15.1379315318677534   T   T   T
 -0.6411123640986220  1.6987229139070881 15.1379315318677534   T   T   T
  1.2822246552129395  2.8091620597489908 15.1379315318677534   T   T   T
 -1.7916933794835808  3.1033039367586688 12.3855803542639862   T   T   T
  3.0739180103684185  2.5150201827393133  1.3761756438489074   T   T   T
  1.1505809910568578  1.4045810368974103  1.3761756438489074   T   T   T
 -0.6411123640986225  1.1104391598877321  4.1285268214526765   T   T   T
  1.7916933308273777  3.1033039367586688  4.1285268214526765   T   T   T
  1.2822246552129395  0.0000000140458301  4.1285268214526765   T   T   T
  3.0739180103684189  0.2941418910555083  1.3761756438489074   T   T   T
 -0.0000000243281018  0.0000000140458294  8.2570535878583318   T   T   T
  2.4328056705978987  1.4045810368974105  5.5047024102545619   T   T   T
  2.4328056705978987  1.4045810368974101 13.7617559430658716   T   T   T
 -0.0000000243280975  2.8091620597489908 11.0094047654621008   T   T   T
 -0.0000000243280975  2.8091620597489908  2.7523512326507928   T   T   T
 -0.0000000243281018  0.0000000140458301  0.0000000550470229   T   T   T
