C  O  Ca
 1.0000000000000000
     5.0662551585056921    0.0000000000000000    0.0000000000000000
    -2.5331275792528460    4.3875056693198875    0.0000000000000000
    -0.0000000000000003    0.0000000000000002   17.1951011714214950
 C   O   Ca 
   6  18   6
Selective dynamics
Cartesian
 -0.0000000253313228  2.9250037941716314  7.1646255454092893   T   T   T
  2.5331275539215232  1.4625019043983358 10.0304757406462048   T   T   T
 -0.0000000253313228  0.0000000146250403 12.8963259358831195   T   T   T
 -0.0000000253313228  2.9250037941716314 15.7621761311200359   T   T   T
  2.5331275539215232  1.4625019043983358  1.4329251549354591   T   T   T
 -0.0000000253313228  0.0000000146250403  4.2987753501723747   T   T   T
  0.6468343876777530  4.0453538615873414  7.1646255454092893   T   T   T
 -1.2936688513494754  2.9250037941716309  7.1646255454092893   T   T   T
  1.8862931409124482  2.5828519718140450 10.0304757406462048   T   T   T
  1.8862931409124488  0.3421518369826244 10.0304757406462048   T   T   T
  3.8267963799396725  1.4625019043983361 10.0304757406462048   T   T   T
  0.6468343876777535  1.8046537267559211  7.1646255454092893   T   T   T
  0.6468343876777530  1.1203500820407510 12.8963259358831195   T   T   T
  3.7725863071562200  0.0000000146250398 12.8963259358831195   T   T   T
 -0.6468344383403996  4.0453538615873406 15.7621761311200359   T   T   T
 -0.6468344383403989  1.8046537267559197 15.7621761311200359   T   T   T
  1.2936688006868300  2.9250037941716318 15.7621761311200359   T   T   T
 -1.8862931915750942  3.2671556165292173 12.8963259358831195   T   T   T
  3.1799619669306001  2.5828519718140459  1.4329251549354591   T   T   T
  1.2394587279033706  1.4625019043983354  1.4329251549354591   T   T   T
 -0.6468344383403996  1.1203500820407502  4.2987753501723747   T   T   T
  1.8862931409124488  3.2671556165292159  4.2987753501723747   T   T   T
  1.2936688006868300  0.0000000146250405  4.2987753501723747   T   T   T
  3.1799619669306005  0.3421518369826257  1.4329251549354591   T   T   T
 -0.0000000253313228  0.0000000146250398  8.5975506430277466   T   T   T
  2.5331275539215232  1.4625019043983361  5.7317004477908320   T   T   T
  2.5331275539215232  1.4625019043983354 14.3292510335015777   T   T   T
 -0.0000000253313228  2.9250037941716318 11.4634008382646613   T   T   T
 -0.0000000253313228  2.9250037941716309  2.8658502525539165   T   T   T
 -0.0000000253313228  0.0000000146250405  0.0000000573170018   T   T   T
