C  O  Ca
1.01
     5.0160942163422630   -0.0000000000000000    0.0000000000000000
    -2.5080471081711306    4.3440650191286085    0.0000000000000000
     0.0000000000000001    0.0000000000000015   17.0248526449717765
 C   O   Ca 
   6  18   6
Selective dynamics
Cartesian
 -0.0000000250805171  2.8960433605659768  7.0936886588210788   T   T   T
  2.5080470830906840  1.4480216875230971  9.9311640996497097   T   T   T
 -0.0000000250804707  0.0000000144802170 12.7686395404783912   T   T   T
 -0.0000000250805171  2.8960433605659768 15.6061149813070958   T   T   T
  2.5080470830906840  1.4480216875230971  1.4187377771638277   T   T   T
 -0.0000000250804707  0.0000000144802169  4.2562132179924710   T   T   T
  0.6455797223778408  4.0142202835012819  7.0936886588210788   T   T   T
 -1.2911595199978121  2.8960433605659768  7.0936886588210788   T   T   T
  1.8624673356318706  2.5661986104588026  9.9311640996497097   T   T   T
  1.8624673356321095  0.3298447645873867  9.9311640996497097   T   T   T
  3.7992065780077668  1.4480216875230973  9.9311640996497097   T   T   T
  0.6455797223779609  1.7778664376302675  7.0936886588210788   T   T   T
  0.6455797223779600  1.1181769374159258 12.7686395404783912   T   T   T
  3.7249346963446848  0.0000000144802170 12.7686395404783912   T   T   T
 -0.6455797725392577  4.0142202835012810 15.6061149813070958   T   T   T
 -0.6455797725391380  1.7778664376302673 15.6061149813070958   T   T   T
  1.2911594698363937  2.8960433605659768 15.6061149813070958   T   T   T
 -1.8624673857932927  3.2258881106731514 12.7686395404783912   T   T   T
  3.1536268305492539  2.5661986104588035  1.4187377771638277   T   T   T
  1.2168875881735699  1.4480216875230971  1.4187377771638277   T   T   T
 -0.6455797725391385  1.1181769374159252  4.2562132179924710   T   T   T
  1.8624673356318711  3.2258881106731514  4.2562132179924710   T   T   T
  1.2911594698366322  0.0000000144802172  4.2562132179924710   T   T   T
  3.1536268305492547  0.3298447645873871  1.4187377771638277   T   T   T
 -0.0000000250804711  0.0000000144802165  8.5124263792354196   T   T   T
  2.5080470830906840  1.4480216875230973  5.6749509384067895   T   T   T
  2.5080470830906836  1.4480216875230969 14.1873772608926441   T   T   T
 -0.0000000250805171  2.8960433605659768 11.3499018200640460   T   T   T
 -0.0000000250805176  2.8960433605659768  2.8374754975781475   T   T   T
 -0.0000000250804707  0.0000000144802171  0.0000000567495095   T   T   T
