C  O  Ca
 1.0000000000000000
     5.0159006577071361    0.0000000000000000    0.0000000000000000
    -2.5079503288535676    4.3438973924334539    0.0000000000000000
     0.0000000000000009    0.0000000000000006   16.9794709009592637
 C   O   Ca 
   6  18   6
Selective dynamics
Cartesian
 -0.0000000250795358  2.8959316094352916  7.0747795986645832   T   T   T
  2.5079503037740323  1.4479658119574736  9.9046914154911274   T   T   T
 -0.0000000250795358  0.0000000144796557 12.7346032323176708   T   T   T
 -0.0000000250795358  2.8959316094352916 15.5645150491442159   T   T   T
  2.5079503037740323  1.4479658119574736  1.4149559650114956   T   T   T
 -0.0000000250795358  0.0000000144796557  4.2448677818380398   T   T   T
  0.6455365425482738  4.0140337427102804  7.0747795986645832   T   T   T
 -1.2910731603351555  2.8959316094352916  7.0747795986645832   T   T   T
  1.8624137361462223  2.5660679452324633  9.9046914154911274   T   T   T
  1.8624137361462223  0.3298636786824849  9.9046914154911274   T   T   T
  3.7990234390296527  1.4479658119574734  9.9046914154911274   T   T   T
  0.6455365425482738  1.7778294761603024  7.0747795986645832   T   T   T
  0.6455365425482738  1.1181021477546444 12.7346032323176708   T   T   T
  3.7248274973719804  0.0000000144796557 12.7346032323176708   T   T   T
 -0.6455365927073458  4.0140337427102812 15.5645150491442159   T   T   T
 -0.6455365927073458  1.7778294761603028 15.5645150491442159   T   T   T
  1.2910731101760844  2.8959316094352916 15.5645150491442159   T   T   T
 -1.8624137863052943  3.2257952736381204 12.7346032323176708   T   T   T
  3.1534868714018418  2.5660679452324624  1.4149559650114956   T   T   T
  1.2168771685184125  1.4479658119574736  1.4149559650114956   T   T   T
 -0.6455365927073458  1.1181021477546453  4.2448677818380398   T   T   T
  1.8624137361462223  3.2257952736381208  4.2448677818380398   T   T   T
  1.2910731101760844  0.0000000144796555  4.2448677818380398   T   T   T
  3.1534868714018418  0.3298636786824845  1.4149559650114956   T   T   T
 -0.0000000250795358  0.0000000144796557  8.4897355070778548   T   T   T
  2.5079503037740323  1.4479658119574739  5.6598236902513115   T   T   T
  2.5079503037740323  1.4479658119574736 14.1495591407309433   T   T   T
 -0.0000000250795358  2.8959316094352916 11.3196473239043982   T   T   T
 -0.0000000250795358  2.8959316094352916  2.8299118734247672   T   T   T
 -0.0000000250795358  0.0000000144796559  0.0000000565982239   T   T   T
