C  O  Ca
 1.0000000000000000
     4.8440647290368180    0.0000000000000000   -0.0000000000000000
    -2.4220323645184085    4.1950831129220667   -0.0000000000000000
    -0.0000000000000009    0.0000000000000000   16.4254160058256105
 C   O   Ca 
   6  18   6
Selective dynamics
Cartesian
 -0.0000000242203555  2.7967220892650109  6.8439233905120487   T   T   T
  2.4220323402980544  1.3983610516243146  9.5814927248163180   T   T   T
 -0.0000000242203542  0.0000000139836183 12.3190620591205864   T   T   T
 -0.0000000242203555  2.7967220892650109 15.0566313934248548   T   T   T
  2.4220323402980544  1.3983610516243146  1.3687847219035119   T   T   T
 -0.0000000242203542  0.0000000139836183  4.1063540562077812   T   T   T
  0.6417623740061095  3.9082871693805048  6.8439233905120487   T   T   T
 -1.2835248206732852  2.7967220892650109  6.8439233905120487   T   T   T
  1.7802699420715868  2.5099261317398165  9.5814927248163180   T   T   T
  1.7802699420715864  0.2867959715088148  9.5814927248163180   T   T   T
  3.7055571367509885  1.3983610516243143  9.5814927248163180   T   T   T
  0.6417623740061148  1.6851570091495072  6.8439233905120487   T   T   T
  0.6417623740061136  1.1115650940991106 12.3190620591205864   T   T   T
  3.5605399083635279  0.0000000139836183 12.3190620591205864   T   T   T
 -0.6417624224468254  3.9082871693805048 15.0566313934248548   T   T   T
 -0.6417624224468199  1.6851570091495076 15.0566313934248548   T   T   T
  1.2835247722325833  2.7967220892650109 15.0566313934248548   T   T   T
 -1.7802699905122916  3.0835180467902048 12.3190620591205864   T   T   T
  3.0637947385245301  2.5099261317398165  1.3687847219035119   T   T   T
  1.1385075438451162  1.3983610516243146  1.3687847219035119   T   T   T
 -0.6417624224468214  1.1115650940991109  4.1063540562077812   T   T   T
  1.7802699420715902  3.0835180467902057  4.1063540562077812   T   T   T
  1.2835247722325798  0.0000000139836180  4.1063540562077812   T   T   T
  3.0637947385245297  0.2867959715088145  1.3687847219035119   T   T   T
 -0.0000000242203542  0.0000000139836178  8.2127080576641838   T   T   T
  2.4220323402980544  1.3983610516243148  5.4751387233599145   T   T   T
  2.4220323402980544  1.3983610516243143 13.6878467262727206   T   T   T
 -0.0000000242203555  2.7967220892650109 10.9502773919684522   T   T   T
 -0.0000000242203555  2.7967220892650109  2.7375693890556470   T   T   T
 -0.0000000242203542  0.0000000139836185  0.0000000547513777   T   T   T
