C  O  Ca
 1.0000000000000000
     4.9157723320154210   -0.0000000000000000   -0.0000000000000000
    -2.4578861660077105    4.2571837187460257    0.0000000000000000
    -0.0000000000000003    0.0000000000000001   16.6843555920723396
 C   O   Ca 
   6  18   6
Selective dynamics
Cartesian
 -0.0000000245789074  2.8381224933546503  6.9518148856446569   T   T   T
  2.4578861414288036  1.4190612537726417  9.7325408176567123   T   T   T
 -0.0000000245789074  0.0000000141906331 12.5132667496687695   T   T   T
 -0.0000000245789069  2.8381224933546503 15.2939926816808232   T   T   T
  2.4578861414288031  1.4190612537726417  1.3903630216205451   T   T   T
 -0.0000000245789069  0.0000000141906331  4.1710889536326006   T   T   T
  0.6427106983364317  3.9513301200133375  6.9518148856446569   T   T   T
 -1.2854214704095839  2.8381224933546503  6.9518148856446569   T   T   T
  1.8151754185134654  2.5322688804313285  9.7325408176567123   T   T   T
  1.8151754185134656  0.3058536271139529  9.7325408176567123   T   T   T
  3.7433075872594794  1.4190612537726419  9.7325408176567123   T   T   T
  0.6427106983364317  1.7249148666959619  6.9518148856446569   T   T   T
  0.6427106983364317  1.1132076408493214 12.5132667496687695   T   T   T
  3.6303508616058378  0.0000000141906331 12.5132667496687695   T   T   T
 -0.6427107474942455  3.9513301200133366 15.2939926816808232   T   T   T
 -0.6427107474942451  1.7249148666959613 15.2939926816808232   T   T   T
  1.2854214212517701  2.8381224933546503 15.2939926816808232   T   T   T
 -1.8151754676712792  3.1439761062779712 12.5132667496687695   T   T   T
  3.1005968643441411  2.5322688804313294  1.3903630216205451   T   T   T
  1.1724646955981266  1.4190612537726417  1.3903630216205451   T   T   T
 -0.6427107474942455  1.1132076408493208  4.1710889536326006   T   T   T
  1.8151754185134659  3.1439761062779708  4.1710889536326006   T   T   T
  1.2854214212517701  0.0000000141906333  4.1710889536326006   T   T   T
  3.1005968643441411  0.3058536271139538  1.3903630216205451   T   T   T
 -0.0000000245789074  0.0000000141906327  8.3421778516506855   T   T   T
  2.4578861414288036  1.4190612537726419  5.5614519196386292   T   T   T
  2.4578861414288031  1.4190612537726415 13.9036297156747963   T   T   T
 -0.0000000245789069  2.8381224933546503 11.1229037836627409   T   T   T
 -0.0000000245789074  2.8381224933546503  2.7807259876265737   T   T   T
 -0.0000000245789069  0.0000000141906333  0.0000000556145174   T   T   T
