C  O  Ca
 1.0000000000000000
    10.1875175744691795    0.0000000000000000    0.0000000000000000
    -5.0937587872345889    8.8226490209907347    0.0000000000000000
    -0.0000000000000009    0.0000000000000005   17.2720869339609528
 C   O   Ca 
  24  72  24
Cartesian
 -0.0000000254688325  2.9408830217013344  7.1967029467240105
  5.0937587617657556  2.9408830217013344  7.1967029467240105
 -2.5468794190861277  7.3522075321967035  7.1967029467240105
  2.5468793681484603  7.3522075321967035  7.1967029467240105
  2.5468793681484683  1.4704415182028789 10.0753841023841701
  7.6406381553830593  1.4704415182028789 10.0753841023841701
 -0.0000000254688265  5.8817660286982472 10.0753841023841701
  5.0937587617657645  5.8817660286982472 10.0753841023841701
 10.1875175490003560  0.0000000147044235 12.9540652580443272
  5.0937587617657627  0.0000000147044235 12.9540652580443272
  7.6406381553830558  4.4113245251997917 12.9540652580443272
  2.5468793681484687  4.4113245251997917 12.9540652580443272
 -0.0000000254688324  2.9408830217013344 15.8327464137044878
  5.0937587617657583  2.9408830217013344 15.8327464137044878
 -2.5468794190861272  7.3522075321967044 15.8327464137044878
  2.5468793681484625  7.3522075321967044 15.8327464137044878
  2.5468793681484683  1.4704415182028789  1.4393406354036928
  7.6406381553830585  1.4704415182028789  1.4393406354036928
 -0.0000000254688265  5.8817660286982472  1.4393406354036928
  5.0937587617657636  5.8817660286982472  1.4393406354036928
 10.1875175490003560  0.0000000147044235  4.3180217910638525
  5.0937587617657627  0.0000000147044235  4.3180217910638525
  7.6406381553830585  4.4113245251997917  4.3180217910638525
  2.5468793681484674  4.4113245251997917  4.3180217910638525
  0.6483702266374307  4.0638932404656245  7.1967029467240105
  5.7421290138720220  4.0638932404656245  7.1967029467240105
 -1.8985091669798637  8.4752177509609918  7.1967029467240105
  3.1952496202547267  8.4752177509609918  7.1967029467240105
 -1.2967405296813592  2.9408830217013344  7.1967029467240105
  3.7970182575532290  2.9408830217013344  7.1967029467240105
 -3.8436199232986543  7.3522075321967035  7.1967029467240105
  1.2501388639359334  7.3522075321967035  7.1967029467240105
  1.8985091160422021  2.5934517369671743 10.0753841023841701
  6.9922679032767894  2.5934517369671743 10.0753841023841701
 -0.6483702775750930  7.0047762474625426 10.0753841023841701
  4.4453885096594945  7.0047762474625426 10.0753841023841701
  1.8985091160422014  0.3474312994385841 10.0753841023841701
  6.9922679032767920  0.3474312994385841 10.0753841023841701
 -0.6483702775750938  4.7587558099339526 10.0753841023841701
  4.4453885096594963  4.7587558099339526 10.0753841023841701
  3.8436198723610016  1.4704415182028792 10.0753841023841701
  8.9373786595955913  1.4704415182028792 10.0753841023841701
  1.2967404787437078  5.8817660286982472 10.0753841023841701
  6.3904992659782955  5.8817660286982472 10.0753841023841701
  0.6483702266374406  1.8178728029370395  7.1967029467240105
  5.7421290138720291  1.8178728029370395  7.1967029467240105
 -1.8985091669798544  6.2291973134324063  7.1967029467240105
  3.1952496202547342  6.2291973134324063  7.1967029467240105
  0.6483702266374399  1.1230102334687193 12.9540652580443272
  5.7421290138720282  1.1230102334687193 12.9540652580443272
 -1.8985091669798544  5.5343347439640862 12.9540652580443272
  3.1952496202547356  5.5343347439640862 12.9540652580443272
  3.7970182575532281  0.0000000147044235 12.9540652580443272
  8.8907770447878214  0.0000000147044235 12.9540652580443272
  1.2501388639359343  4.4113245251997917 12.9540652580443272
  6.3438976511705247  4.4113245251997917 12.9540652580443272
 -0.6483702775751016  4.0638932404656254 15.8327464137044878
  4.4453885096594874  4.0638932404656254 15.8327464137044878
 -3.1952496711923968  8.4752177509609918 15.8327464137044878
  1.8985091160421927  8.4752177509609918 15.8327464137044878
 -0.6483702775750925  1.8178728029370392 15.8327464137044878
  4.4453885096594981  1.8178728029370392 15.8327464137044878
 -3.1952496711923879  6.2291973134324072 15.8327464137044878
  1.8985091160422027  6.2291973134324072 15.8327464137044878
  1.2967404787437067  2.9408830217013344 15.8327464137044878
  6.3904992659782955  2.9408830217013344 15.8327464137044878
 -1.2501389148735884  7.3522075321967044 15.8327464137044878
  3.8436198723610016  7.3522075321967044 15.8327464137044878
  8.2890084074893267  3.2883143064354945 12.9540652580443272
  3.1952496202547365  3.2883143064354945 12.9540652580443272
  5.7421290138720291  7.6996388169308609 12.9540652580443272
  0.6483702266374423  7.6996388169308609 12.9540652580443272
  3.1952496202547342  2.5934517369671757  1.4393406354036928
  8.2890084074893231  2.5934517369671757  1.4393406354036928
  0.6483702266374398  7.0047762474625426  1.4393406354036928
  5.7421290138720300  7.0047762474625426  1.4393406354036928
  1.2501388639359350  1.4704415182028789  1.4393406354036928
  6.3438976511705247  1.4704415182028789  1.4393406354036928
 -1.2967405296813597  5.8817660286982472  1.4393406354036928
  3.7970182575532299  5.8817660286982472  1.4393406354036928
  9.5391472968940878  1.1230102334687184  4.3180217910638525
  4.4453885096594963  1.1230102334687184  4.3180217910638525
  6.9922679032767947  5.5343347439640862  4.3180217910638525
  1.8985091160422016  5.5343347439640862  4.3180217910638525
  1.8985091160422010  3.2883143064354945  4.3180217910638525
  6.9922679032767894  3.2883143064354945  4.3180217910638525
 -0.6483702775750938  7.6996388169308618  4.3180217910638525
  4.4453885096594945  7.6996388169308618  4.3180217910638525
  1.2967404787437071  0.0000000147044237  4.3180217910638525
  6.3904992659782973  0.0000000147044237  4.3180217910638525
 -1.2501389148735873  4.4113245251997917  4.3180217910638525
  3.8436198723610020  4.4113245251997917  4.3180217910638525
  3.1952496202547342  0.3474312994385844  1.4393406354036928
  8.2890084074893267  0.3474312994385844  1.4393406354036928
  0.6483702266374399  4.7587558099339526  1.4393406354036928
  5.7421290138720309  4.7587558099339526  1.4393406354036928
 10.1925979227502808  0.0000000147044243  8.6446568748059374
  5.0937587617657636  0.0000000147044243  8.6360435245540881
  7.6406381553830593  4.4113245251997917  8.6360435245540881
  2.5468793681484692  4.4113245251997917  8.6360435245540881
  2.5468793681484669  1.4704415182028792  5.7573623688939310
  7.6406381553830585  1.4704415182028792  5.7573623688939310
 -0.0000000254688267  5.8817660286982472  5.7573623688939310
  5.0937587617657636  5.8817660286982472  5.7573623688939310
  2.5468793681484683  1.4704415182028794 14.3934058358744075
  7.6406381553830593  1.4704415182028794 14.3934058358744075
 -0.0000000254688262  5.8817660286982472 14.3934058358744075
  5.0937587617657645  5.8817660286982472 14.3934058358744075
 -0.0000000254688324  2.9408830217013344 11.5147246802142487
  5.0937587617657556  2.9408830217013344 11.5147246802142487
 -2.5468794190861272  7.3522075321967026 11.5147246802142487
  2.5468793681484607  7.3522075321967026 11.5147246802142487
 -0.0000000254688330  2.9408830217013349  2.8786812132337722
  5.0937587617657565  2.9408830217013349  2.8786812132337722
 -2.5468794190861268  7.3522075321967035  2.8786812132337722
  2.5468793681484616  7.3522075321967035  2.8786812132337722
 10.1875175490003507  0.0000000147044237  0.0000000575736134
  5.0937587617657636  0.0000000147044237  0.0000000575736134
  7.6406381553830585  4.4113245251997917  0.0000000575736134
  2.5468793681484687  4.4113245251997917  0.0000000575736134
