C  O  Ca
 1.0000000000000000
     5.2167379849959605    0.0000000000000000   -0.0000000000000000
    -2.6083689924979807    4.5178276198937448   -0.0000000000000000
     0.0000000000000010    0.0000000000000002   17.7058467507706467
 C   O   Ca 
   6  18   6
Selective dynamics
Cartesian
 -0.0000000260837309  3.0118850949886098  7.3774362051739217   T   T   T
  2.6083689664142424  1.5059425550240284 10.3284106636356974   T   T   T
 -0.0000000260837383  0.0000000150594470 13.2793851220974695   T   T   T
 -0.0000000260837305  3.0118850949886098 16.2303595805592451   T   T   T
  2.6083689664142420  1.5059425550240284  1.4754872882503731   T   T   T
 -0.0000000260837378  0.0000000150594470  4.4264617467121488   T   T   T
  0.6500412862446989  4.1377896749601959  7.3774362051739217   T   T   T
 -1.3000826507405940  3.0118850949886098  7.3774362051739217   T   T   T
  1.9583276540858130  2.6318471349956130 10.3284106636356974   T   T   T
  1.9583276540858139  0.3800379750524416 10.3284106636356974   T   T   T
  3.9084515910711000  1.5059425550240286 10.3284106636356974   T   T   T
  0.6500412862446997  1.8859805150170241  7.3774362051739217   T   T   T
  0.6500412862446898  1.1259045950310336 13.2793851220974695   T   T   T
  3.9166553342553647  0.0000000150594470 13.2793851220974695   T   T   T
 -0.6500413384121573  4.1377896749601950 16.2303595805592451   T   T   T
 -0.6500413384121565  1.8859805150170235 16.2303595805592451   T   T   T
  1.3000825985731188  3.0118850949886098 16.2303595805592451   T   T   T
 -1.9583277062532887  3.3919230549816066 13.2793851220974695   T   T   T
  3.2584102787426681  2.6318471349956138  1.4754872882503731   T   T   T
  1.3082863417573862  1.5059425550240284  1.4754872882503731   T   T   T
 -0.6500413384121664  1.1259045950310327  4.4264617467121488   T   T   T
  1.9583276540858139  3.3919230549816062  4.4264617467121488   T   T   T
  1.3000825985731188  0.0000000150594472  4.4264617467121488   T   T   T
  3.2584102787426690  0.3800379750524427  1.4754872882503731   T   T   T
 -0.0000000260837383  0.0000000150594470  8.8529234344048096   T   T   T
  2.6083689664142424  1.5059425550240286  5.9019489759430348   T   T   T
  2.6083689664142420  1.5059425550240289 14.7548723513283591   T   T   T
 -0.0000000260837305  3.0118850949886098 11.8038978928665834   T   T   T
 -0.0000000260837309  3.0118850949886102  2.9509745174812609   T   T   T
 -0.0000000260837378  0.0000000150594472  0.0000000590194862   T   T   T
