C  O  Ca
 1.0000000000000000
     9.9314833022601299    0.0000000000000000    0.0000000000000000
    -4.9657416511300649    8.6009168370182412    0.0000000000000000
    -0.0000000000000004   -0.0000000000000007   16.8096761919496700
 C   O   Ca 
  24  72  24
Cartesian
 -0.0000000248287419  2.8669722933409401  7.0040318026779369
  4.9657416263013232  2.8669722933409401  7.0040318026779369
 -2.4828708503937742  7.1674307118500620  7.0040318026779369
  2.4828708007362907  7.1674307118500620  7.0040318026779369
  2.4828708007362907  1.4334861538378993  9.8056445013362143
  7.4486124518663557  1.4334861538378993  9.8056445013362143
 -0.0000000248287409  5.7339445723470215  9.8056445013362143
  4.9657416263013223  5.7339445723470215  9.8056445013362143
  9.9314832774313899  0.0000000143348595 12.6072571999944927
  4.9657416263013241  0.0000000143348595 12.6072571999944927
  7.4486124518663575  4.3004584328439792 12.6072571999944927
  2.4828708007362916  4.3004584328439792 12.6072571999944927
 -0.0000000248287410  2.8669722933409401 15.4088698986527710
  4.9657416263013241  2.8669722933409401 15.4088698986527710
 -2.4828708503937746  7.1674307118500611 15.4088698986527710
  2.4828708007362903  7.1674307118500611 15.4088698986527710
  2.4828708007362907  1.4334861538378993  1.4008064053613802
  7.4486124518663557  1.4334861538378993  1.4008064053613802
 -0.0000000248287415  5.7339445723470215  1.4008064053613802
  4.9657416263013223  5.7339445723470215  1.4008064053613802
  9.9314832774313881  0.0000000143348595  4.2024191040196577
  4.9657416263013241  0.0000000143348595  4.2024191040196577
  7.4486124518663557  4.3004584328439801  4.2024191040196577
  2.4828708007362912  4.3004584328439801  4.2024191040196577
  0.6341656130951386  3.9826999067151325  7.0040318026779369
  5.6099072642252032  3.9826999067151325  7.0040318026779369
 -1.8387052124698935  8.2831583252242531  7.0040318026779369
  3.1270364386601708  8.2831583252242531  7.0040318026779369
 -1.2883313006765027  2.8669722933409396  7.0040318026779369
  3.6774103504535613  2.8669722933409396  7.0040318026779369
 -3.7712021262415347  7.1674307118500611  7.0040318026779369
  1.1945395248885291  7.1674307118500611  7.0040318026779369
  1.8387051628124107  2.5492137672120747  9.8056445013362143
  6.8044468139424765  2.5492137672120747  9.8056445013362143
 -0.6441656627526212  6.8496721857211966  9.8056445013362143
  4.3215759883774441  6.8496721857211966  9.8056445013362143
  1.8387051628124103  0.3177585404637208  9.8056445013362143
  6.8044468139424747  0.3177585404637208  9.8056445013362143
 -0.6441656627526214  4.6182169589728419  9.8056445013362143
  4.3215759883774432  4.6182169589728419  9.8056445013362143
  3.7712020765840508  1.4334861538378996  9.8056445013362143
  8.7369437277141166  1.4334861538378996  9.8056445013362143
  1.2883312510190192  5.7339445723470215  9.8056445013362143
  6.2540729021490842  5.7339445723470215  9.8056445013362143
  0.6441656130951392  1.7512446799667694  7.0040318026779369
  5.6099072642252032  1.7512446799667694  7.0040318026779369
 -1.8387052124698928  6.0517030984758895  7.0040318026779369
  3.1270364386601721  6.0517030984758895  7.0040318026779369
  0.6441656130951385  1.1157276277090384 12.6072571999944927
  5.6099072642252041  1.1157276277090384 12.6072571999944927
 -1.8387052124698939  5.4161860462181597 12.6072571999944927
  3.1270364386601703  5.4161860462181597 12.6072571999944927
  3.6774103504535613  0.0000000143348591 12.6072571999944927
  8.6431520015836281  0.0000000143348591 12.6072571999944927
  1.1945395248885302  4.3004584328439792 12.6072571999944927
  6.1602811760185974  4.3004584328439792 12.6072571999944927
 -0.6441656627526215  3.9826999067151303 15.4088698986527710
  4.3215759883774441  3.9826999067151303 15.4088698986527710
 -3.1270364883176538  8.2831583252242531 15.4088698986527710
  1.8387051628124107  8.2831583252242531 15.4088698986527710
 -0.6441656627526215  1.7512446799667689 15.4088698986527710
  4.3215759883774449  1.7512446799667689 15.4088698986527710
 -3.1270364883176538  6.0517030984758886 15.4088698986527710
  1.8387051628124114  6.0517030984758886 15.4088698986527710
  1.2883312510190186  2.8669722933409405 15.4088698986527710
  6.2540729021490851  2.8669722933409405 15.4088698986527710
 -1.1945395745460143  7.1674307118500611 15.4088698986527710
  3.7712020765840522  7.1674307118500611 15.4088698986527710
  8.0927780897902366  3.1847308194698196 12.6072571999944927
  3.1270364386601717  3.1847308194698196 12.6072571999944927
  5.6099072642252041  7.4851892379789389 12.6072571999944927
  0.6441656130951395  7.4851892379789389 12.6072571999944927
  3.1270364386601699  2.5492137672120765  1.4008064053613802
  8.0927780897902348  2.5492137672120765  1.4008064053613802
  0.6441656130951371  6.8496721857211984  1.4008064053613802
  5.6099072642252015  6.8496721857211984  1.4008064053613802
  1.1945395248885300  1.4334861538378989  1.4008064053613802
  6.1602811760185947  1.4334861538378989  1.4008064053613802
 -1.2883313006765023  5.7339445723470188  1.4008064053613802
  3.6774103504535627  5.7339445723470188  1.4008064053613802
  9.2873176395075081  1.1157276277090373  4.2024191040196577
  4.3215759883774432  1.1157276277090373  4.2024191040196577
  6.8044468139424747  5.4161860462181597  4.2024191040196577
  1.8387051628124096  5.4161860462181597  4.2024191040196577
  1.8387051628124103  3.1847308194698187  4.2024191040196577
  6.8044468139424765  3.1847308194698187  4.2024191040196577
 -0.6441656627526221  7.4851892379789398  4.2024191040196577
  4.3215759883774441  7.4851892379789398  4.2024191040196577
  1.2883312510190192  0.0000000143348597  4.2024191040196577
  6.2540729021490842  0.0000000143348597  4.2024191040196577
 -1.1945395745460126  4.3004584328439801  4.2024191040196577
  3.7712020765840522  4.3004584328439801  4.2024191040196577
  3.1270364386601703  0.3177585404637214  1.4008064053613802
  8.0927780897902366  0.3177585404637214  1.4008064053613802
  0.6441656130951380  4.6182169589728419  1.4008064053613802
  5.6099072642252032  4.6182169589728419  1.4008064053613802
  9.9314832774313881  0.0000000143348595  8.4048381520070770
  4.9657416263013250  0.0000000143348595  8.4048381520070770
  7.4486124518663557  4.3004584328439801  8.4048381520070770
  2.4828708007362921  4.3004584328439801  8.4048381520070770
  2.4828708007362912  1.4334861538378996  5.6032254533487968
  7.4486124518663557  1.4334861538378996  5.6032254533487968
 -0.0000000248287412  5.7339445723470215  5.6032254533487968
  4.9657416263013223  5.7339445723470215  5.6032254533487968
  2.4828708007362907  1.4334861538378991 14.0080635493236336
  7.4486124518663557  1.4334861538378991 14.0080635493236336
 -0.0000000248287414  5.7339445723470206 14.0080635493236336
  4.9657416263013223  5.7339445723470206 14.0080635493236336
 -0.0000000248287414  2.8669722933409405 11.2064508506653553
  4.9657416263013223  2.8669722933409405 11.2064508506653553
 -2.4828708503937746  7.1674307118500602 11.2064508506653553
  2.4828708007362899  7.1674307118500602 11.2064508506653553
 -0.0000000248287421  2.8669722933409405  2.8016127546905203
  4.9657416263013223  2.8669722933409405  2.8016127546905203
 -2.4828708503937751  7.1674307118500620  2.8016127546905203
  2.4828708007362899  7.1674307118500620  2.8016127546905203
  9.9314832774313881  0.0000000143348597  0.0000000560322411
  4.9657416263013241  0.0000000143348597  0.0000000560322411
  7.4486124518663557  4.3004584328439801  0.0000000560322411
  2.4828708007362912  4.3004584328439801  0.0000000560322411
