C  O  Ca
 1.0000000000000000
    10.0318013154142722    0.0000000000000000    0.0000000000000000
    -5.0159006577071352    8.6877947848669077    0.0000000000000000
     0.0000000000000009    0.0000000000000006   16.9794709009592637
 C   O   Ca 
  24  72  24
Cartesian
 -0.0000000250795358  2.8959316094352916  7.0747795986645832
  5.0159006326275994  2.8959316094352916  7.0747795986645832
 -2.5079503539331029  7.2398290018687446  7.0747795986645832
  2.5079503037740327  7.2398290018687446  7.0747795986645832
  2.5079503037740327  1.4479658119574741  9.9046914154911310
  7.5238509614811697  1.4479658119574741  9.9046914154911310
 -0.0000000250795353  5.7918632043909275  9.9046914154911310
  5.0159006326276021  5.7918632043909275  9.9046914154911310
 10.0318012903347338  0.0000000144796557 12.7346032323176743
  5.0159006326276003  0.0000000144796557 12.7346032323176743
  7.5238509614811688  4.3438974069131113 12.7346032323176743
  2.5079503037740323  4.3438974069131113 12.7346032323176743
 -0.0000000250795360  2.8959316094352916 15.5645150491442195
  5.0159006326276003  2.8959316094352916 15.5645150491442195
 -2.5079503539331034  7.2398290018687455 15.5645150491442195
  2.5079503037740332  7.2398290018687455 15.5645150491442195
  2.5079503037740323  1.4479658119574736  1.4149559650114960
  7.5238509614811688  1.4479658119574736  1.4149559650114960
 -0.0000000250795353  5.7918632043909275  1.4149559650114960
  5.0159006326276012  5.7918632043909275  1.4149559650114960
 10.0318012903347356  0.0000000144796557  4.2448677818380398
  5.0159006326275994  0.0000000144796557  4.2448677818380398
  7.5238509614811688  4.3438974069131095  4.2448677818380398
  2.5079503037740332  4.3438974069131095  4.2448677818380398
  0.6555365425482739  4.0140337427102804  7.0747795986645832
  5.6614372002554099  4.0140337427102804  7.0747795986645832
 -1.8624137863052943  8.3579311351437333  7.0747795986645832
  3.1534868714018418  8.3579311351437333  7.0747795986645832
 -1.2910731603351551  2.8959316094352916  7.0747795986645832
  3.7248274973719808  2.8959316094352916  7.0747795986645832
 -3.7990234891887229  7.2398290018687446  7.0747795986645832
  1.2168771685184134  7.2398290018687446  7.0747795986645832
  1.8624137361462227  2.5660679452324633  9.9046914154911310
  6.8783143938533602  2.5660679452324633  9.9046914154911310
 -0.6455365927073450  6.9099653376659171  9.9046914154911310
  4.3703640649997917  6.9099653376659171  9.9046914154911310
  1.8624137361462216  0.3298636786824848  9.9046914154911310
  6.8783143938533584  0.3298636786824848  9.9046914154911310
 -0.6455365927073453  4.6737610711159387  9.9046914154911310
  4.3703640649997908  4.6737610711159387  9.9046914154911310
  3.7990234390296522  1.4479658119574739  9.9046914154911310
  8.8149240967367852  1.4479658119574739  9.9046914154911310
  1.2910731101760848  5.7918632043909266  9.9046914154911310
  6.3069737678832212  5.7918632043909266  9.9046914154911310
  0.6455365425482736  1.7778294761603024  7.0747795986645832
  5.6614372002554090  1.7778294761603024  7.0747795986645832
 -1.8624137863052941  6.1217268685937558  7.0747795986645832
  3.1534868714018418  6.1217268685937558  7.0747795986645832
  0.6455365425482743  1.1181021477546444 12.7346032323176743
  5.6614372002554108  1.1181021477546444 12.7346032323176743
 -1.8624137863052941  5.4619995401880992 12.7346032323176743
  3.1534868714018427  5.4619995401880992 12.7346032323176743
  3.7248274973719795  0.0000000144796557 12.7346032323176743
  8.7407281550791129  0.0000000144796557 12.7346032323176743
  1.2168771685184114  4.3438974069131113 12.7346032323176743
  6.2327778262255480  4.3438974069131113 12.7346032323176743
 -0.6455365927073463  4.0140337427102830 15.5645150491442195
  4.3703640649997899  4.0140337427102830 15.5645150491442195
 -3.1534869215609143  8.3579311351437351 15.5645150491442195
  1.8624137361462227  8.3579311351437351 15.5645150491442195
 -0.6455365927073461  1.7778294761603028 15.5645150491442195
  4.3703640649997899  1.7778294761603028 15.5645150491442195
 -3.1534869215609134  6.1217268685937567 15.5645150491442195
  1.8624137361462223  6.1217268685937567 15.5645150491442195
  1.2910731101760842  2.8959316094352916 15.5645150491442195
  6.3069737678832203  2.8959316094352916 15.5645150491442195
 -1.2168772186774832  7.2398290018687455 15.5645150491442195
  3.7990234390296531  7.2398290018687455 15.5645150491442195
  8.1693875291089775  3.2257952736381204 12.7346032323176743
  3.1534868714018423  3.2257952736381204 12.7346032323176743
  5.6614372002554099  7.5696926660715755 12.7346032323176743
  0.6455365425482741  7.5696926660715755 12.7346032323176743
  3.1534868714018431  2.5660679452324624  1.4149559650114960
  8.1693875291089757  2.5660679452324624  1.4149559650114960
  0.6455365425482746  6.9099653376659163  1.4149559650114960
  5.6614372002554108  6.9099653376659163  1.4149559650114960
  1.2168771685184125  1.4479658119574736  1.4149559650114960
  6.2327778262255507  1.4479658119574736  1.4149559650114960
 -1.2910731603351557  5.7918632043909275  1.4149559650114960
  3.7248274973719817  5.7918632043909275  1.4149559650114960
  9.3862647227069260  1.1181021477546453  4.2448677818380398
  4.3703640649997890  1.1181021477546453  4.2448677818380398
  6.8783143938533593  5.4619995401880983  4.2448677818380398
  1.8624137361462221  5.4619995401880983  4.2448677818380398
  1.8624137361462216  3.2257952736381208  4.2448677818380398
  6.8783143938533575  3.2257952736381208  4.2448677818380398
 -0.6455365927073459  7.5696926660715746  4.2448677818380398
  4.3703640649997899  7.5696926660715746  4.2448677818380398
  1.2910731101760844  0.0000000144796555  4.2448677818380398
  6.3069737678832203  0.0000000144796555  4.2448677818380398
 -1.2168772186774832  4.3438974069131095  4.2448677818380398
  3.7990234390296531  4.3438974069131095  4.2448677818380398
  3.1534868714018427  0.3298636786824845  1.4149559650114960
  8.1693875291089775  0.3298636786824845  1.4149559650114960
  0.6455365425482751  4.6737610711159387  1.4149559650114960
  5.6614372002554108  4.6737610711159387  1.4149559650114960
 10.0318012903347338  0.0000000144796557  8.4897355070778584
  5.0159006326276012  0.0000000144796557  8.4897355070778584
  7.5238509614811697  4.3438974069131095  8.4897355070778584
  2.5079503037740332  4.3438974069131095  8.4897355070778584
  2.5079503037740323  1.4479658119574739  5.6598236902513115
  7.5238509614811688  1.4479658119574739  5.6598236902513115
 -0.0000000250795364  5.7918632043909275  5.6598236902513115
  5.0159006326276012  5.7918632043909275  5.6598236902513115
  2.5079503037740323  1.4479658119574736 14.1495591407309469
  7.5238509614811679  1.4479658119574736 14.1495591407309469
 -0.0000000250795354  5.7918632043909275 14.1495591407309469
  5.0159006326276003  5.7918632043909275 14.1495591407309469
 -0.0000000250795358  2.8959316094352916 11.3196473239044018
  5.0159006326276003  2.8959316094352916 11.3196473239044018
 -2.5079503539331038  7.2398290018687446 11.3196473239044018
  2.5079503037740318  7.2398290018687446 11.3196473239044018
 -0.0000000250795363  2.8959316094352916  2.8299118734247672
  5.0159006326276003  2.8959316094352916  2.8299118734247672
 -2.5079503539331043  7.2398290018687455  2.8299118734247672
  2.5079503037740314  7.2398290018687455  2.8299118734247672
 10.0318012903347356  0.0000000144796559  0.0000000565982239
  5.0159006326276003  0.0000000144796559  0.0000000565982239
  7.5238509614811679  4.3438974069131104  0.0000000565982239
  2.5079503037740323  4.3438974069131104  0.0000000565982239
