Si
 1.0000000000000000
    11.3671604014898957    0.0000000000000000    0.0000000000000000
     0.0000000000000000   11.3671604014898957    0.0000000000000000
     0.0000000000000000    0.0000000000000000   11.3671604014898957
 Si 
  64
Cartesian
  1.4308950539536540  4.2626851514680855  1.4208950539536536
  7.1044752546986016  4.2626851514680855  1.4208950539536536
  1.4208950539536540  9.9462653522130324  1.4208950539536536
  7.1044752546986016  9.9462653522130324  1.4208950539536536
  1.4208950539536540  4.2626851514680855  7.1044752546986016
  7.1044752546986016  4.2626851514680855  7.1044752546986016
  1.4208950539536540  9.9462653522130324  7.1044752546986016
  7.1044752546986016  9.9462653522130324  7.1044752546986016
  0.0000000037674170  0.0000000009093744  2.8417901041398914
  5.6835802045123645  0.0000000009093744  2.8417901041398914
  0.0000000037674170  5.6835802016543218  2.8417901041398914
  5.6835802045123645  5.6835802016543218  2.8417901041398914
  0.0000000037674170  0.0000000009093744  8.5253703048848397
  5.6835802045123645  0.0000000009093744  8.5253703048848397
  0.0000000037674170  5.6835802016543218  8.5253703048848397
  5.6835802045123645  5.6835802016543218  8.5253703048848397
  1.4208950539536540  1.4208950510956115  4.2626851543261282
  7.1044752546986016  1.4208950510956115  4.2626851543261282
  1.4208950539536540  7.1044752518405589  4.2626851543261282
  7.1044752546986016  7.1044752518405589  4.2626851543261282
  1.4208950539536540  1.4208950510956115  9.9462653550710769
  7.1044752546986016  1.4208950510956115  9.9462653550710769
  1.4208950539536540  7.1044752518405589  9.9462653550710769
  7.1044752546986016  7.1044752518405589  9.9462653550710769
  0.0000000037674170  2.8417901012818483  0.0000000037674170
  5.6835802045123645  2.8417901012818483  0.0000000037674170
  0.0000000037674170  8.5253703020267952  0.0000000037674170
  5.6835802045123645  8.5253703020267952  0.0000000037674170
  0.0000000037674170  2.8417901012818483  5.6835802045123645
  5.6835802045123645  2.8417901012818483  5.6835802045123645
  0.0000000037674170  8.5253703020267952  5.6835802045123645
  5.6835802045123645  8.5253703020267952  5.6835802045123645
  4.2626851543261282  4.2626851514680855  4.2626851543261282
  9.9462653550710769  4.2626851514680855  4.2626851543261282
  4.2626851543261282  9.9462653522130324  4.2626851543261282
  9.9462653550710769  9.9462653522130324  4.2626851543261282
  4.2626851543261282  4.2626851514680855  9.9462653550710769
  9.9462653550710769  4.2626851514680855  9.9462653550710769
  4.2626851543261282  9.9462653522130324  9.9462653550710769
  9.9462653550710769  9.9462653522130324  9.9462653550710769
  2.8417901041398914  0.0000000009093744  0.0000000037674170
  8.5253703048848397  0.0000000009093744  0.0000000037674170
  2.8417901041398914  5.6835802016543218  0.0000000037674170
  8.5253703048848397  5.6835802016543218  0.0000000037674170
  2.8417901041398914  0.0000000009093744  5.6835802045123645
  8.5253703048848397  0.0000000009093744  5.6835802045123645
  2.8417901041398914  5.6835802016543218  5.6835802045123645
  8.5253703048848397  5.6835802016543218  5.6835802045123645
  4.2626851543261282  1.4208950510956115  1.4208950539536536
  9.9462653550710769  1.4208950510956115  1.4208950539536536
  4.2626851543261282  7.1044752518405589  1.4208950539536536
  9.9462653550710769  7.1044752518405589  1.4208950539536536
  4.2626851543261282  1.4208950510956115  7.1044752546986016
  9.9462653550710769  1.4208950510956115  7.1044752546986016
  4.2626851543261282  7.1044752518405589  7.1044752546986016
  9.9462653550710769  7.1044752518405589  7.1044752546986016
  2.8417901041398914  2.8417901012818483  2.8417901041398914
  8.5253703048848397  2.8417901012818483  2.8417901041398914
  2.8417901041398914  8.5253703020267952  2.8417901041398914
  8.5253703048848397  8.5253703020267952  2.8417901041398914
  2.8417901041398914  2.8417901012818483  8.5253703048848397
  8.5253703048848397  2.8417901012818483  8.5253703048848397
  2.8417901041398914  8.5253703020267952  8.5253703048848397
  8.5253703048848397  8.5253703020267952  8.5253703048848397
