C  O  Ca
 1.0000000000000000
     9.6305292627976993    0.0000000000000000    0.0000000000000000
    -4.8152646313988496    8.3402829934722256    0.0000000000000000
    -0.0000000000000004    0.0000000000000001   16.3002920649208924
 C   O   Ca 
  24  72  24
Cartesian
 -0.0000000240763550  2.7800943450578774  6.7917884147179999
  4.8152646073224954  2.7800943450578774  6.7917884147179999
 -2.4076323397757791  6.9502358417939902  6.7917884147179999
  2.4076322916230710  6.9502358417939902  6.7917884147179999
  2.4076322916230701  1.3900471794791731  9.5085037588714787
  7.2228969230219198  1.3900471794791731  9.5085037588714787
 -0.0000000240763546  5.5601886762152857  9.5085037588714787
  4.8152646073224954  5.5601886762152857  9.5085037588714787
  9.6305292387213441  0.0000000139004688 12.2252191030249602
  4.8152646073224963  0.0000000139004688 12.2252191030249602
  7.2228969230219198  4.1701415106365820 12.2252191030249602
  2.4076322916230697  4.1701415106365820 12.2252191030249602
 -0.0000000240763552  2.7800943450578774 14.9419344471784434
  4.8152646073224954  2.7800943450578774 14.9419344471784434
 -2.4076323397757795  6.9502358417939902 14.9419344471784434
  2.4076322916230706  6.9502358417939902 14.9419344471784434
  2.4076322916230697  1.3900471794791731  1.3583577264110360
  7.2228969230219180  1.3900471794791731  1.3583577264110360
 -0.0000000240763557  5.5601886762152857  1.3583577264110360
  4.8152646073224936  5.5601886762152857  1.3583577264110360
  9.6305292387213441  0.0000000139004688  4.0750730705645184
  4.8152646073224963  0.0000000139004688  4.0750730705645184
  7.2228969230219198  4.1701415106365820  4.0750730705645184
  2.4076322916230701  4.1701415106365820  4.0750730705645184
  0.6294072872759096  3.8875802950510119  6.7917884147179999
  5.4546719186747588  3.8875802950510119  6.7917884147179999
 -1.7682250284235153  8.0577217917871256  6.7917884147179999
  3.0470396029753339  8.0577217917871256  6.7917884147179999
 -1.2788146467808843  2.7800943450578779  6.7917884147179999
  3.5364499846179660  2.7800943450578779  6.7917884147179999
 -3.6864469624803089  6.9502358417939911  6.7917884147179999
  1.1288176689185407  6.9502358417939911  6.7917884147179999
  1.7682249802708061  2.4975331294723078  9.5085037588714787
  6.5834896116696546  2.4975331294723078  9.5085037588714787
 -0.6394073354286189  6.6676746262084201  9.5085037588714787
  4.1758572959702303  6.6676746262084201  9.5085037588714787
  1.7682249802708061  0.2825612294860399  9.5085037588714787
  6.5834896116696564  0.2825612294860399  9.5085037588714787
 -0.6394073354286188  4.4527027262221521  9.5085037588714787
  4.1758572959702320  4.4527027262221521  9.5085037588714787
  3.6864469143275977  1.3900471794791729  9.5085037588714787
  8.5017115457264474  1.3900471794791729  9.5085037588714787
  1.2788145986281729  5.5601886762152857  9.5085037588714787
  6.0940792300270221  5.5601886762152857  9.5085037588714787
  0.6394072872759098  1.6726083950647437  6.7917884147179999
  5.4546719186747596  1.6726083950647437  6.7917884147179999
 -1.7682250284235153  5.8427498918008567  6.7917884147179999
  3.0470396029753362  5.8427498918008567  6.7917884147179999
  0.6394072872759099  1.1074859638936030 12.2252191030249602
  5.4546719186747596  1.1074859638936030 12.2252191030249602
 -1.7682250284235146  5.2776274606297156 12.2252191030249602
  3.0470396029753348  5.2776274606297156 12.2252191030249602
  3.5364499846179669  0.0000000139004692 12.2252191030249602
  8.3517146160168156  0.0000000139004692 12.2252191030249602
  1.1288176689185421  4.1701415106365820 12.2252191030249602
  5.9440823003173913  4.1701415106365820 12.2252191030249602
 -0.6394073354286191  3.8875802950510119 14.9419344471784434
  4.1758572959702303  3.8875802950510119 14.9419344471784434
 -3.0470396511280442  8.0577217917871256 14.9419344471784434
  1.7682249802708052  8.0577217917871256 14.9419344471784434
 -0.6394073354286193  1.6726083950647443 14.9419344471784434
  4.1758572959702311  1.6726083950647443 14.9419344471784434
 -3.0470396511280442  5.8427498918008576 14.9419344471784434
  1.7682249802708057  5.8427498918008576 14.9419344471784434
  1.2788145986281751  2.7800943450578770 14.9419344471784434
  6.0940792300270248  2.7800943450578770 14.9419344471784434
 -1.1288177170712497  6.9502358417939902 14.9419344471784434
  3.6864469143276000  6.9502358417939902 14.9419344471784434
  7.8623042343741840  3.0626555606434480 12.2252191030249602
  3.0470396029753322  3.0626555606434480 12.2252191030249602
  5.4546719186747588  7.2327970573795612 12.2252191030249602
  0.6394072872759082  7.2327970573795612 12.2252191030249602
  3.0470396029753366  2.4975331294723078  1.3583577264110360
  7.8623042343741867  2.4975331294723078  1.3583577264110360
  0.6394072872759120  6.6676746262084201  1.3583577264110360
  5.4546719186747623  6.6676746262084201  1.3583577264110360
  1.1288176689185414  1.3900471794791736  1.3583577264110360
  5.9440823003173922  1.3900471794791736  1.3583577264110360
 -1.2788146467808843  5.5601886762152866  1.3583577264110360
  3.5364499846179664  5.5601886762152866  1.3583577264110360
  8.9911219273690790  1.1074859638936030  4.0750730705645184
  4.1758572959702303  1.1074859638936030  4.0750730705645184
  6.5834896116696555  5.2776274606297156  4.0750730705645184
  1.7682249802708057  5.2776274606297156  4.0750730705645184
  1.7682249802708059  3.0626555606434485  4.0750730705645184
  6.5834896116696555  3.0626555606434485  4.0750730705645184
 -0.6394073354286196  7.2327970573795612  4.0750730705645184
  4.1758572959702303  7.2327970573795612  4.0750730705645184
  1.2788145986281751  0.0000000139004686  4.0750730705645184
  6.0940792300270257  0.0000000139004686  4.0750730705645184
 -1.1288177170712494  4.1701415106365811  4.0750730705645184
  3.6864469143276000  4.1701415106365811  4.0750730705645184
  3.0470396029753362  0.2825612294860388  1.3583577264110360
  7.8623042343741849  0.2825612294860388  1.3583577264110360
  0.6394072872759113  4.4527027262221512  1.3583577264110360
  5.4546719186747605  4.4527027262221512  1.3583577264110360
  9.6305292387213441  0.0000000139004692  8.1501460867947415
  4.8152646073224945  0.0000000139004692  8.1501460867947415
  7.2228969230219198  4.1701415106365820  8.1501460867947415
  2.4076322916230701  4.1701415106365820  8.1501460867947415
  2.4076322916230701  1.3900471794791733  5.4334307426412591
  7.2228969230219198  1.3900471794791733  5.4334307426412591
 -0.0000000240763545  5.5601886762152857  5.4334307426412591
  4.8152646073224954  5.5601886762152857  5.4334307426412591
  2.4076322916230706  1.3900471794791731 13.5835767751017045
  7.2228969230219198  1.3900471794791731 13.5835767751017045
 -0.0000000240763547  5.5601886762152857 13.5835767751017045
  4.8152646073224954  5.5601886762152857 13.5835767751017045
 -0.0000000240763551  2.7800943450578779 10.8668614309482230
  4.8152646073224954  2.7800943450578779 10.8668614309482230
 -2.4076323397757800  6.9502358417939911 10.8668614309482230
  2.4076322916230701  6.9502358417939911 10.8668614309482230
 -0.0000000240763551  2.7800943450578774  2.7167153984877777
  4.8152646073224945  2.7800943450578774  2.7167153984877777
 -2.4076323397757791  6.9502358417939902  2.7167153984877777
  2.4076322916230710  6.9502358417939902  2.7167153984877777
  9.6305292387213441  0.0000000139004690  0.0000000543342953
  4.8152646073224945  0.0000000139004690  0.0000000543342953
  7.2228969230219198  4.1701415106365820  0.0000000543342953
  2.4076322916230701  4.1701415106365820  0.0000000543342953
