ADDGRID = True
ALGO = Normal
EDIFF = 1e-08
EDIFFG = -1e-08
ENCUT = 520.0
IBRION = 2
ISIF = 2
ISMEAR = 0
LCHARG = False
LREAL = False
LWAVE = False
NELMIN = 5
NPAR = 4
NSW = 20
PREC = Accurate
SIGMA = 0.01
