C  O  Ca
 1.0000000000000000
     4.9659332741788447    0.0000000000000000    0.0000000000000000
    -2.4829666370894223    4.3006243689373127    0.0000000000000000
    -0.0000000000000003    0.0000000000000006   16.8546041185220581
 C   O   Ca 
   6  18   6
Selective dynamics
Cartesian
 -0.0000000248297156  2.8670829269603173  7.0227517722328674   T   T   T
  2.4829666122597098  1.4335414706478760  9.8318524586532092   T   T   T
 -0.0000000248297125  0.0000000143354346 12.6409531450735528   T   T   T
 -0.0000000248297156  2.8670829269603173 15.4500538314938929   T   T   T
  2.4829666122597098  1.4335414706478760  1.4045503993921828   T   T   T
 -0.0000000248297125  0.0000000143354346  4.2136510858125247   T   T   T
  0.6441953936000548  3.9828621216837647  7.0227517722328674   T   T   T
 -1.2883908616892596  2.8670829269603173  7.0227517722328674   T   T   T
  1.8387711938299400  2.5493206653713338  9.8318524586532092   T   T   T
  1.8387711938299443  0.3177622759244187  9.8318524586532092   T   T   T
  3.7713574491192579  1.4335414706478762  9.8318524586532092   T   T   T
  0.6441953936000576  1.7513037322368552  7.0227517722328674   T   T   T
  0.6441953936000567  1.1157792090588894 12.6409531450735528   T   T   T
  3.6775424124896010  0.0000000143354346 12.6409531450735528   T   T   T
 -0.6441954432594883  3.9828621216837639 15.4500538314938929   T   T   T
 -0.6441954432594860  1.7513037322368550 15.4500538314938929   T   T   T
  1.2883908120298275  2.8670829269603173 15.4500538314938929   T   T   T
 -1.8387712434893726  3.1848451885492848 12.6409531450735528   T   T   T
  3.1271620306894827  2.5493206653713347  1.4045503993921828   T   T   T
  1.1945757754001705  1.4335414706478760  1.4045503993921828   T   T   T
 -0.6441954432594864  1.1157792090588887  4.2136510858125247   T   T   T
  1.8387711938299405  3.1848451885492848  4.2136510858125247   T   T   T
  1.2883908120298313  0.0000000143354348  4.2136510858125247   T   T   T
  3.1271620306894836  0.3177622759244192  1.4045503993921828   T   T   T
 -0.0000000248297130  0.0000000143354342  8.4273021154430392   T   T   T
  2.4829666122597098  1.4335414706478762  5.6182014290226965   T   T   T
  2.4829666122597094  1.4335414706478757 14.0455034882837246   T   T   T
 -0.0000000248297156  2.8670829269603173 11.2364028018633810   T   T   T
 -0.0000000248297161  2.8670829269603173  2.8091007426023547   T   T   T
 -0.0000000248297125  0.0000000143354348  0.0000000561820119   T   T   T
