C  O  Ca
 1.0000000000000000
    10.1325103170113842    0.0000000000000000    0.0000000000000000
    -5.0662551585056921    8.7750113386397750    0.0000000000000000
    -0.0000000000000003    0.0000000000000002   17.1951011714214950
 C   O   Ca 
  24  72  24
Cartesian
 -0.0000000253313228  2.9250037941716305  7.1646255454092911
  5.0662551331743710  2.9250037941716305  7.1646255454092911
 -2.5331276045841684  7.3125094634915184  7.1646255454092911
  2.5331275539215246  7.3125094634915184  7.1646255454092911
  2.5331275539215232  1.4625019043983363 10.0304757406462048
  7.5993827124272153  1.4625019043983363 10.0304757406462048
 -0.0000000253313230  5.8500075737182238 10.0304757406462048
  5.0662551331743693  5.8500075737182238 10.0304757406462048
 10.1325102916800631  0.0000000146250403 12.8963259358831195
  5.0662551331743693  0.0000000146250403 12.8963259358831195
  7.5993827124272162  4.3875056839449282 12.8963259358831195
  2.5331275539215219  4.3875056839449282 12.8963259358831195
 -0.0000000253313225  2.9250037941716305 15.7621761311200395
  5.0662551331743710  2.9250037941716305 15.7621761311200395
 -2.5331276045841684  7.3125094634915184 15.7621761311200395
  2.5331275539215241  7.3125094634915184 15.7621761311200395
  2.5331275539215232  1.4625019043983358  1.4329251549354594
  7.5993827124272162  1.4625019043983358  1.4329251549354594
 -0.0000000253313229  5.8500075737182238  1.4329251549354594
  5.0662551331743693  5.8500075737182238  1.4329251549354594
 10.1325102916800613  0.0000000146250403  4.2987753501723747
  5.0662551331743693  0.0000000146250403  4.2987753501723747
  7.5993827124272144  4.3875056839449282  4.2987753501723747
  2.5331275539215232  4.3875056839449282  4.2987753501723747
  0.6368343876777526  4.0453538615873414  7.1646255454092911
  5.7130895461834461  4.0453538615873414  7.1646255454092911
 -1.8862931915750936  8.4328595309072281  7.1646255454092911
  3.1799619669306001  8.4328595309072281  7.1646255454092911
 -1.2936688513494758  2.9250037941716305  7.1646255454092911
  3.7725863071562169  2.9250037941716305  7.1646255454092911
 -3.8267964306023212  7.3125094634915184  7.1646255454092911
  1.2394587279033706  7.3125094634915184  7.1646255454092911
  1.8862931409124482  2.5828519718140441 10.0304757406462048
  6.9525482994181411  2.5828519718140441 10.0304757406462048
 -0.6468344383403980  6.9703576411339316 10.0304757406462048
  4.4194207201652951  6.9703576411339316 10.0304757406462048
  1.8862931409124479  0.3421518369826244 10.0304757406462048
  6.9525482994181393  0.3421518369826244 10.0304757406462048
 -0.6468344383403974  4.7296575063025115 10.0304757406462048
  4.4194207201652933  4.7296575063025115 10.0304757406462048
  3.8267963799396720  1.4625019043983365 10.0304757406462048
  8.8930515384453646  1.4625019043983365 10.0304757406462048
  1.2936688006868258  5.8500075737182238 10.0304757406462048
  6.3599239591925159  5.8500075737182238 10.0304757406462048
  0.6468343876777533  1.8046537267559206  7.1646255454092911
  5.7130895461834461  1.8046537267559206  7.1646255454092911
 -1.8862931915750927  6.1921593960758079  7.1646255454092911
  3.1799619669306001  6.1921593960758079  7.1646255454092911
  0.6468343876777530  1.1203500820407510 12.8963259358831195
  5.7130895461834452  1.1203500820407510 12.8963259358831195
 -1.8862931915750929  5.5078557513606370 12.8963259358831195
  3.1799619669305987  5.5078557513606370 12.8963259358831195
  3.7725863071562187  0.0000000146250398 12.8963259358831195
  8.8388414656619130  0.0000000146250398 12.8963259358831195
  1.2394587279033729  4.3875056839449273 12.8963259358831195
  6.3057138864090669  4.3875056839449273 12.8963259358831195
 -0.6468344383403993  4.0453538615873406 15.7621761311200395
  4.4194207201652915  4.0453538615873406 15.7621761311200395
 -3.1799620175932461  8.4328595309072281 15.7621761311200395
  1.8862931409124462  8.4328595309072281 15.7621761311200395
 -0.6468344383403987  1.8046537267559197 15.7621761311200395
  4.4194207201652933  1.8046537267559197 15.7621761311200395
 -3.1799620175932457  6.1921593960758070 15.7621761311200395
  1.8862931409124468  6.1921593960758070 15.7621761311200395
  1.2936688006868295  2.9250037941716309 15.7621761311200395
  6.3599239591925194  2.9250037941716309 15.7621761311200395
 -1.2394587785660163  7.3125094634915193 15.7621761311200395
  3.8267963799396729  7.3125094634915193 15.7621761311200395
  8.2462171254362904  3.2671556165292168 12.8963259358831195
  3.1799619669305970  3.2671556165292168 12.8963259358831195
  5.7130895461834443  7.6546612858491043 12.8963259358831195
  0.6468343876777521  7.6546612858491043 12.8963259358831195
  3.1799619669306001  2.5828519718140459  1.4329251549354594
  8.2462171254362922  2.5828519718140459  1.4329251549354594
  0.6468343876777536  6.9703576411339325  1.4329251549354594
  5.7130895461834461  6.9703576411339325  1.4329251549354594
  1.2394587279033704  1.4625019043983354  1.4329251549354594
  6.3057138864090625  1.4625019043983354  1.4329251549354594
 -1.2936688513494756  5.8500075737182229  1.4329251549354594
  3.7725863071562165  5.8500075737182229  1.4329251549354594
  9.4856758786709854  1.1203500820407502  4.2987753501723747
  4.4194207201652933  1.1203500820407502  4.2987753501723747
  6.9525482994181393  5.5078557513606370  4.2987753501723747
  1.8862931409124473  5.5078557513606370  4.2987753501723747
  1.8862931409124488  3.2671556165292159  4.2987753501723747
  6.9525482994181411  3.2671556165292159  4.2987753501723747
 -0.6468344383403973  7.6546612858491034  4.2987753501723747
  4.4194207201652951  7.6546612858491034  4.2987753501723747
  1.2936688006868300  0.0000000146250405  4.2987753501723747
  6.3599239591925212  0.0000000146250405  4.2987753501723747
 -1.2394587785660156  4.3875056839449282  4.2987753501723747
  3.8267963799396760  4.3875056839449282  4.2987753501723747
  3.1799619669306005  0.3421518369826257  1.4329251549354594
  8.2462171254362922  0.3421518369826257  1.4329251549354594
  0.6468343876777545  4.7296575063025132  1.4329251549354594
  5.7130895461834452  4.7296575063025132  1.4329251549354594
 10.1325102916800613  0.0000000146250398  8.5975506430277466
  5.0662551331743684  0.0000000146250398  8.5975506430277466
  7.5993827124272153  4.3875056839449273  8.5975506430277466
  2.5331275539215237  4.3875056839449273  8.5975506430277466
  2.5331275539215232  1.4625019043983361  5.7317004477908320
  7.5993827124272153  1.4625019043983361  5.7317004477908320
 -0.0000000253313230  5.8500075737182238  5.7317004477908320
  5.0662551331743693  5.8500075737182238  5.7317004477908320
  2.5331275539215219  1.4625019043983354 14.3292510335015812
  7.5993827124272144  1.4625019043983354 14.3292510335015812
 -0.0000000253313230  5.8500075737182229 14.3292510335015812
  5.0662551331743684  5.8500075737182229 14.3292510335015812
 -0.0000000253313227  2.9250037941716309 11.4634008382646613
  5.0662551331743702  2.9250037941716309 11.4634008382646613
 -2.5331276045841689  7.3125094634915193 11.4634008382646613
  2.5331275539215241  7.3125094634915193 11.4634008382646613
 -0.0000000253313230  2.9250037941716305  2.8658502525539173
  5.0662551331743693  2.9250037941716305  2.8658502525539173
 -2.5331276045841689  7.3125094634915184  2.8658502525539173
  2.5331275539215228  7.3125094634915184  2.8658502525539173
 10.1325102916800596  0.0000000146250405  0.0000000573170018
  5.0662551331743693  0.0000000146250405  0.0000000573170018
  7.5993827124272162  4.3875056839449282  0.0000000573170018
  2.5331275539215232  4.3875056839449282  0.0000000573170018
