C  O  Ca
 1.0000000000000000
     9.7880070813527436    0.0000000000000000    0.0000000000000000
    -4.8940035406763718    8.4766627848734544    0.0000000000000000
    -0.0000000000000009   -0.0000000000000008   16.5947501914526754
 C   O   Ca 
  24  72  24
Cartesian
  0.0050803492798793  2.8255542757522631  6.9230926520062877
  4.8940035162063245  2.8255542757522631  6.9144793017544384
 -2.4470017948082350  7.0638856681889912  6.9144793017544384
  2.4470017458681363  7.0638856681889912  6.9144793017544384
  2.4470017458681359  1.4127771449400213  9.6802710003298849
  7.3410052865445090  1.4127771449400213  9.6802710003298849
 -0.0000000244700491  5.6511085373767465  9.6802710003298849
  4.8940035162063245  5.6511085373767465  9.6802710003298849
  9.7880070568826980  0.0000000141277789 12.4460626989053260
  4.8940035162063227  0.0000000141277789 12.4460626989053260
  7.3410052865445099  4.2383314065645052 12.4460626989053260
  2.4470017458681368  4.2383314065645052 12.4460626989053260
 -0.0000000244700489  2.8255542757522631 15.2118543974807761
  4.8940035162063218  2.8255542757522631 15.2118543974807761
 -2.4470017948082350  7.0638856681889903 15.2118543974807761
  2.4470017458681359  7.0638856681889903 15.2118543974807761
  2.4470017458681368  1.4127771449400210  1.3828959046035472
  7.3410052865445081  1.4127771449400210  1.3828959046035472
 -0.0000000244700492  5.6511085373767482  1.3828959046035472
  4.8940035162063227  5.6511085373767482  1.3828959046035472
  9.7880070568826945  0.0000000141277789  4.1486876031789937
  4.8940035162063245  0.0000000141277789  4.1486876031789937
  7.3410052865445090  4.2383314065645061  4.1486876031789937
  2.4470017458681372  4.2383314065645061  4.1486876031789937
  0.6432932072556430  3.9397708372663391  6.9144793017544384
  5.5372967479320172  3.9397708372663391  6.9144793017544384
 -1.8037085630825429  8.1781022297030663  6.9144793017544384
  3.0902949775938287  8.1781022297030663  6.9144793017544384
 -1.2865864879214315  2.8255542757522631  6.9144793017544384
  3.6074170527549407  2.8255542757522631  6.9144793017544384
 -3.7335882582596174  7.0638856681889912  6.9144793017544384
  1.1604152824167555  7.0638856681889912  6.9144793017544384
  1.8037085141424456  2.5269937064540970  9.6802710003298849
  6.6977120548188180  2.5269937064540970  9.6802710003298849
 -0.6432932561957407  6.7653250988908225  9.6802710003298849
  4.2507102844806326  6.7653250988908225  9.6802710003298849
  1.8037085141424458  0.2985605834259432  9.6802710003298849
  6.6977120548188172  0.2985605834259432  9.6802710003298849
 -0.6432932561957401  4.5368919758626696  9.6802710003298849
  4.2507102844806317  4.5368919758626696  9.6802710003298849
  3.7335882093195196  1.4127771449400213  9.6802710003298849
  8.6275917499958918  1.4127771449400213  9.6802710003298849
  1.2865864389813346  5.6511085373767465  9.6802710003298849
  6.1805899796577064  5.6511085373767465  9.6802710003298849
  0.6432932072556427  1.7113377142381854  6.9144793017544384
  5.5372967479320163  1.7113377142381854  6.9144793017544384
 -1.8037085630825436  5.9496691066749134  6.9144793017544384
  3.0902949775938295  5.9496691066749134  6.9144793017544384
  0.6432932072556431  1.1142165756418563 12.4460626989053260
  5.5372967479320145  1.1142165756418563 12.4460626989053260
 -1.8037085630825433  5.3525479680785830 12.4460626989053260
  3.0902949775938273  5.3525479680785830 12.4460626989053260
  3.6074170527549407  0.0000000141277789 12.4460626989053260
  8.5014205934313125  0.0000000141277789 12.4460626989053260
  1.1604152824167546  4.2383314065645052 12.4460626989053260
  6.0544188230931262  4.2383314065645052 12.4460626989053260
 -0.6432932561957398  3.9397708372663391 15.2118543974807761
  4.2507102844806308  3.9397708372663391 15.2118543974807761
 -3.0902950265339260  8.1781022297030681 15.2118543974807761
  1.8037085141424458  8.1781022297030681 15.2118543974807761
 -0.6432932561957398  1.7113377142381849 15.2118543974807761
  4.2507102844806326  1.7113377142381849 15.2118543974807761
 -3.0902950265339255  5.9496691066749117 15.2118543974807761
  1.8037085141424469  5.9496691066749117 15.2118543974807761
  1.2865864389813335  2.8255542757522631 15.2118543974807761
  6.1805899796577037  2.8255542757522631 15.2118543974807761
 -1.1604153313568524  7.0638856681889903 15.2118543974807761
  3.7335882093195178  7.0638856681889903 15.2118543974807761
  7.9842985182702026  3.1241148450504292 12.4460626989053260
  3.0902949775938282  3.1241148450504292 12.4460626989053260
  5.5372967479320145  7.3624462374871564 12.4460626989053260
  0.6432932072556423  7.3624462374871564 12.4460626989053260
  3.0902949775938304  2.5269937064540970  1.3828959046035472
  7.9842985182702018  2.5269937064540970  1.3828959046035472
  0.6432932072556448  6.7653250988908233  1.3828959046035472
  5.5372967479320154  6.7653250988908233  1.3828959046035472
  1.1604152824167544  1.4127771449400210  1.3828959046035472
  6.0544188230931262  1.4127771449400210  1.3828959046035472
 -1.2865864879214315  5.6511085373767482  1.3828959046035472
  3.6074170527549407  5.6511085373767482  1.3828959046035472
  9.1447138251570070  1.1142165756418563  4.1486876031789937
  4.2507102844806317  1.1142165756418563  4.1486876031789937
  6.6977120548188189  5.3525479680785830  4.1486876031789937
  1.8037085141424458  5.3525479680785830  4.1486876031789937
  1.8037085141424465  3.1241148450504284  4.1486876031789937
  6.6977120548188189  3.1241148450504284  4.1486876031789937
 -0.6432932561957394  7.3624462374871555  4.1486876031789937
  4.2507102844806326  7.3624462374871555  4.1486876031789937
  1.2865864389813342  0.0000000141277787  4.1486876031789937
  6.1805899796577055  0.0000000141277787  4.1486876031789937
 -1.1604153313568519  4.2383314065645061  4.1486876031789937
  3.7335882093195183  4.2383314065645061  4.1486876031789937
  3.0902949775938300  0.2985605834259440  1.3828959046035472
  7.9842985182702018  0.2985605834259440  1.3828959046035472
  0.6432932072556442  4.5368919758626713  1.3828959046035472
  5.5372967479320163  4.5368919758626713  1.3828959046035472
  9.7880070568826945  0.0000000141277789  8.2973751510421572
  4.8940035162063227  0.0000000141277789  8.2973751510421572
  7.3410052865445081  4.2383314065645061  8.2973751510421572
  2.4470017458681372  4.2383314065645061  8.2973751510421572
  2.4470017458681368  1.4127771449400213  5.5315834524667160
  7.3410052865445099  1.4127771449400213  5.5315834524667160
 -0.0000000244700490  5.6511085373767482  5.5315834524667160
  4.8940035162063245  5.6511085373767482  5.5315834524667160
  2.4470017458681368  1.4127771449400213 13.8289585481930519
  7.3410052865445090  1.4127771449400213 13.8289585481930519
 -0.0000000244700491  5.6511085373767482 13.8289585481930519
  4.8940035162063227  5.6511085373767482 13.8289585481930519
 -0.0000000244700488  2.8255542757522631 11.0631668496176072
  4.8940035162063227  2.8255542757522631 11.0631668496176072
 -2.4470017948082350  7.0638856681889903 11.0631668496176072
  2.4470017458681363  7.0638856681889903 11.0631668496176072
 -0.0000000244700487  2.8255542757522631  2.7657917538912695
  4.8940035162063236  2.8255542757522631  2.7657917538912695
 -2.4470017948082341  7.0638856681889903  2.7657917538912695
  2.4470017458681377  7.0638856681889903  2.7657917538912695
  9.7880070568826945  0.0000000141277792  0.0000000553158248
  4.8940035162063236  0.0000000141277792  0.0000000553158248
  7.3410052865445090  4.2383314065645061  0.0000000553158248
  2.4470017458681377  4.2383314065645061  0.0000000553158248
