Si
 1.0000000000000000
    10.4927634475291338    0.0000000000000000    0.0000000000000000
     0.0000000000000000   10.4927634475291338    0.0000000000000000
     0.0000000000000000    0.0000000000000000   10.4927634475291338
 Si 
  64
Cartesian
  1.3215954344187575  3.9347862936628482  1.3115954344187570
  6.5579771581833244  3.9347862936628482  1.3115954344187570
  1.3115954344187575  9.1811680174274155  1.3115954344187570
  6.5579771581833244  9.1811680174274155  1.3115954344187570
  1.3115954344187575  3.9347862936628482  6.5579771581833244
  6.5579771581833244  3.9347862936628482  6.5579771581833244
  1.3115954344187575  9.1811680174274155  6.5579771581833244
  6.5579771581833244  9.1811680174274155  6.5579771581833244
  0.0000000034776158  0.0000000008394232  2.6231908653598990
  5.2463817272421824  0.0000000008394232  2.6231908653598990
  0.0000000034776158  5.2463817246039905  2.6231908653598990
  5.2463817272421824  5.2463817246039905  2.6231908653598990
  0.0000000034776158  0.0000000008394232  7.8695725891244654
  5.2463817272421824  0.0000000008394232  7.8695725891244654
  0.0000000034776158  5.2463817246039905  7.8695725891244654
  5.2463817272421824  5.2463817246039905  7.8695725891244654
  1.3115954344187575  1.3115954317805647  3.9347862963010400
  6.5579771581833244  1.3115954317805647  3.9347862963010400
  1.3115954344187575  6.5579771555451325  3.9347862963010400
  6.5579771581833244  6.5579771555451325  3.9347862963010400
  1.3115954344187575  1.3115954317805647  9.1811680200656056
  6.5579771581833244  1.3115954317805647  9.1811680200656056
  1.3115954344187575  6.5579771555451325  9.1811680200656056
  6.5579771581833244  6.5579771555451325  9.1811680200656056
  0.0000000034776158  2.6231908627217062  0.0000000034776155
  5.2463817272421824  2.6231908627217062  0.0000000034776155
  0.0000000034776158  7.8695725864862736  0.0000000034776155
  5.2463817272421824  7.8695725864862736  0.0000000034776155
  0.0000000034776158  2.6231908627217062  5.2463817272421824
  5.2463817272421824  2.6231908627217062  5.2463817272421824
  0.0000000034776158  7.8695725864862736  5.2463817272421824
  5.2463817272421824  7.8695725864862736  5.2463817272421824
  3.9347862963010405  3.9347862936628482  3.9347862963010400
  9.1811680200656074  3.9347862936628482  3.9347862963010400
  3.9347862963010405  9.1811680174274155  3.9347862963010400
  9.1811680200656074  9.1811680174274155  3.9347862963010400
  3.9347862963010405  3.9347862936628482  9.1811680200656056
  9.1811680200656074  3.9347862936628482  9.1811680200656056
  3.9347862963010405  9.1811680174274155  9.1811680200656056
  9.1811680200656074  9.1811680174274155  9.1811680200656056
  2.6231908653598990  0.0000000008394232  0.0000000034776155
  7.8695725891244654  0.0000000008394232  0.0000000034776155
  2.6231908653598990  5.2463817246039905  0.0000000034776155
  7.8695725891244654  5.2463817246039905  0.0000000034776155
  2.6231908653598990  0.0000000008394232  5.2463817272421824
  7.8695725891244654  0.0000000008394232  5.2463817272421824
  2.6231908653598990  5.2463817246039905  5.2463817272421824
  7.8695725891244654  5.2463817246039905  5.2463817272421824
  3.9347862963010405  1.3115954317805647  1.3115954344187570
  9.1811680200656074  1.3115954317805647  1.3115954344187570
  3.9347862963010405  6.5579771555451325  1.3115954344187570
  9.1811680200656074  6.5579771555451325  1.3115954344187570
  3.9347862963010405  1.3115954317805647  6.5579771581833244
  9.1811680200656074  1.3115954317805647  6.5579771581833244
  3.9347862963010405  6.5579771555451325  6.5579771581833244
  9.1811680200656074  6.5579771555451325  6.5579771581833244
  2.6231908653598990  2.6231908627217062  2.6231908653598990
  7.8695725891244654  2.6231908627217062  2.6231908653598990
  2.6231908653598990  7.8695725864862736  2.6231908653598990
  7.8695725891244654  7.8695725864862736  2.6231908653598990
  2.6231908653598990  2.6231908627217062  7.8695725891244654
  7.8695725891244654  2.6231908627217062  7.8695725891244654
  2.6231908653598990  7.8695725864862736  7.8695725891244654
  7.8695725891244654  7.8695725864862736  7.8695725891244654
