Al
 1.0000000000000000
     4.0393282180880821    0.0000000000000000    0.0000000000000000
     0.0000000000000000    4.0393282180880821    0.0000000000000000
     0.0000000000000000    0.0000000000000000    4.0393282180880821
 Al 
   4
Cartesian
  0.0000000000000000  0.0000000000000000  0.0000000000000000
  0.0000000000000000  2.0196641090440410  2.0196641090440410
  2.0196641090440410  0.0000000000000000  2.0196641090440410
  2.0196641090440410  2.0196641090440410  0.0000000000000000
Cartesian
  0.0000000000000000  0.0000000000000000  0.0000000000000000
  0.0000000000000000  0.0000000000000000  0.0000000000000000
  0.0000000000000000  0.0000000000000000  0.0000000000000000
  0.0000000000000000  0.0000000000000000  0.0000000000000000
