C  O  Ca
 1.0000000000000000
     9.5305790110503139    0.0000000000000000    0.0000000000000000
    -4.7652895055251552    8.2537235363443404    0.0000000000000000
    -0.0000000000000008    0.0000000000000001   16.1736100127231843
 C   O   Ca 
  24  72  24
Cartesian
 -0.0000000238264815  2.7512411925376723  6.7390042258800227
  4.7652894816986757  2.7512411925376723  6.7390042258800227
 -2.3826447765890593  6.8781029607098425  6.7390042258800227
  2.3826447289360977  6.8781029607098425  6.7390042258800227
  2.3826447289360875  1.3756206031469485  9.4346058946672162
  7.1479342344612427  1.3756206031469485  9.4346058946672162
 -0.0000000238264908  5.5024823713191200  9.4346058946672162
  4.7652894816986651  5.5024823713191200  9.4346058946672162
  9.5305789872238247  0.0000000137562246 12.1302075634544160
  4.7652894816986651  0.0000000137562246 12.1302075634544160
  7.1479342344612471  4.1268617819283948 12.1302075634544160
  2.3826447289360879  4.1268617819283948 12.1302075634544160
 -0.0000000238264815  2.7512411925376723 14.8258092322416140
  4.7652894816986757  2.7512411925376723 14.8258092322416140
 -2.3826447765890593  6.8781029607098425 14.8258092322416140
  2.3826447289360981  6.8781029607098425 14.8258092322416140
  2.3826447289360875  1.3756206031469485  1.3478008883056289
  7.1479342344612435  1.3756206031469485  1.3478008883056289
 -0.0000000238264908  5.5024823713191200  1.3478008883056289
  4.7652894816986660  5.5024823713191200  1.3478008883056289
  9.5305789872238211  0.0000000137562246  4.0434025570928265
  4.7652894816986660  0.0000000137562246  4.0434025570928265
  7.1479342344612444  4.1268617819283948  4.0434025570928265
  2.3826447289360884  4.1268617819283948  4.0434025570928265
  0.6475854761328336  3.8555716726364007  6.7390042258800227
  5.4028749816579884  3.8555716726364007  6.7390042258800227
 -1.7450592766297444  7.9824334408085704  6.7390042258800227
  3.0202302288954108  7.9824334408085704  6.7390042258800227
 -1.2751710237451055  2.7512411925376723  6.7390042258800227
  3.4901184817800508  2.7512411925376723  6.7390042258800227
 -3.6578157765076824  6.8781029607098425  6.7390042258800227
  1.1074737290174739  6.8781029607098425  6.7390042258800227
  1.7450592289767786  2.4799510832456781  9.4346058946672162
  6.5103487345019335  2.4799510832456781  9.4346058946672162
 -0.6375855237857988  6.6068128514178479  9.4346058946672162
  4.1277039817393568  6.6068128514178479  9.4346058946672162
  1.7450592289767781  0.2712901230482240  9.4346058946672162
  6.5103487345019353  0.2712901230482240  9.4346058946672162
 -0.6375855237857995  4.3981518912203938  9.4346058946672162
  4.1277039817393577  4.3981518912203938  9.4346058946672162
  3.6578157288547035  1.3756206031469482  9.4346058946672162
  8.4231052343798645  1.3756206031469482  9.4346058946672162
  1.2751709760921253  5.5024823713191200  9.4346058946672162
  6.0404604816172824  5.5024823713191200  9.4346058946672162
  0.6375854761328150  1.6469107124389477  6.7390042258800227
  5.4028749816579724  1.6469107124389477  6.7390042258800227
 -1.7450592766297628  5.7737724806111181  6.7390042258800227
  3.0202302288953939  5.7737724806111181  6.7390042258800227
  0.6375854761328151  1.1043304938549485 12.1302075634544160
  5.4028749816579724  1.1043304938549485 12.1302075634544160
 -1.7450592766297626  5.2311922620271192 12.1302075634544160
  3.0202302288953953  5.2311922620271192 12.1302075634544160
  3.4901184817800486  0.0000000137562246 12.1302075634544160
  8.2554079873052064  0.0000000137562246 12.1302075634544160
  1.1074737290174708  4.1268617819283948 12.1302075634544160
  5.8727632345426288  4.1268617819283948 12.1302075634544160
 -0.6375855237857808  3.8555716726364011 14.8258092322416140
  4.1277039817393755  3.8555716726364011 14.8258092322416140
 -3.0202302765483582  7.9824334408085704 14.8258092322416140
  1.7450592289767985  7.9824334408085704 14.8258092322416140
 -0.6375855237857985  1.6469107124389470 14.8258092322416140
  4.1277039817393577  1.6469107124389470 14.8258092322416140
 -3.0202302765483764  5.7737724806111173 14.8258092322416140
  1.7450592289767815  5.7737724806111173 14.8258092322416140
  1.2751709760921215  2.7512411925376723 14.8258092322416140
  6.0404604816172807  2.7512411925376723 14.8258092322416140
 -1.1074737766704557  6.8781029607098425 14.8258092322416140
  3.6578157288547031  6.8781029607098425 14.8258092322416140
  7.7855197344205527  3.0225313018296669 12.1302075634544160
  3.0202302288953962  3.0225313018296669 12.1302075634544160
  5.4028749816579751  7.1493930700018380 12.1302075634544160
  0.6375854761328190  7.1493930700018380 12.1302075634544160
  3.0202302288953966  2.4799510832456777  1.3478008883056289
  7.7855197344205536  2.4799510832456777  1.3478008883056289
  0.6375854761328189  6.6068128514178479  1.3478008883056289
  5.4028749816579777  6.6068128514178479  1.3478008883056289
  1.1074737290174734  1.3756206031469485  1.3478008883056289
  5.8727632345426306  1.3756206031469485  1.3478008883056289
 -1.2751710237451044  5.5024823713191200  1.3478008883056289
  3.4901184817800535  5.5024823713191200  1.3478008883056289
  8.8929934872645138  1.1043304938549490  4.0434025570928265
  4.1277039817393586  1.1043304938549490  4.0434025570928265
  6.5103487345019371  5.2311922620271192  4.0434025570928265
  1.7450592289767808  5.2311922620271192  4.0434025570928265
  1.7450592289767777  3.0225313018296660  4.0434025570928265
  6.5103487345019344  3.0225313018296660  4.0434025570928265
 -0.6375855237858002  7.1493930700018380  4.0434025570928265
  4.1277039817393559  7.1493930700018380  4.0434025570928265
  1.2751709760921230  0.0000000137562244  4.0434025570928265
  6.0404604816172798  0.0000000137562244  4.0434025570928265
 -1.1074737766704545  4.1268617819283948  4.0434025570928265
  3.6578157288547022  4.1268617819283948  4.0434025570928265
  3.0202302288953971  0.2712901230482246  1.3478008883056289
  7.7855197344205536  0.2712901230482246  1.3478008883056289
  0.6375854761328187  4.3981518912203947  1.3478008883056289
  5.4028749816579769  4.3981518912203947  1.3478008883056289
  9.5305789872238211  0.0000000137562246  8.0868050602736208
  4.7652894816986668  0.0000000137562246  8.0868050602736208
  7.1479342344612444  4.1268617819283948  8.0868050602736208
  2.3826447289360879  4.1268617819283948  8.0868050602736208
  2.3826447289360857  1.3756206031469487  5.3912033914864246
  7.1479342344612435  1.3756206031469487  5.3912033914864246
 -0.0000000238264915  5.5024823713191200  5.3912033914864246
  4.7652894816986660  5.5024823713191200  5.3912033914864246
  2.3826447289360866  1.3756206031469485 13.4780083978480150
  7.1479342344612435  1.3756206031469485 13.4780083978480150
 -0.0000000238264914  5.5024823713191200 13.4780083978480150
  4.7652894816986660  5.5024823713191200 13.4780083978480150
 -0.0000000238264815  2.7512411925376723 10.7824067290608134
  4.7652894816986739  2.7512411925376723 10.7824067290608134
 -2.3826447765890584  6.8781029607098425 10.7824067290608134
  2.3826447289360977  6.8781029607098425 10.7824067290608134
 -0.0000000238264815  2.7512411925376723  2.6956017226992275
  4.7652894816986757  2.7512411925376723  2.6956017226992275
 -2.3826447765890584  6.8781029607098425  2.6956017226992275
  2.3826447289360981  6.8781029607098425  2.6956017226992275
  9.5305789872238211  0.0000000137562248  0.0000000539120313
  4.7652894816986660  0.0000000137562248  0.0000000539120313
  7.1479342344612444  4.1268617819283948  0.0000000539120313
  2.3826447289360884  4.1268617819283948  0.0000000539120313
