C  O  Ca
 1.0000000000000000
     9.7312227797039998    0.0000000000000000    0.0000000000000000
    -4.8656113898520008    8.4274861371094811    0.0000000000000000
     0.0000000000000010    0.0000000000000001   16.5141070656226212
 C   O   Ca 
  24  72  24
Cartesian
 -0.0000000243280975  2.8091620597489908  6.8808779990564464
  4.8656113655239031  2.8091620597489908  6.8808779990564464
 -2.4328057192540977  7.0229051283037309  6.8808779990564464
  2.4328056705979035  7.0229051283037309  6.8808779990564464
  2.4328056705978987  1.4045810368974108  9.6332291766602154
  7.2984170604498990  1.4045810368974108  9.6332291766602154
 -0.0000000243281016  5.6183241054521513  9.6332291766602154
  4.8656113655238986  5.6183241054521513  9.6332291766602154
  9.7312227553758941  0.0000000140458298 12.3855803542639862
  4.8656113655238977  0.0000000140458298 12.3855803542639862
  7.2984170604498964  4.2137430826005708 12.3855803542639862
  2.4328056705978973  4.2137430826005708 12.3855803542639862
 -0.0000000243280975  2.8091620597489908 15.1379315318677534
  4.8656113655239022  2.8091620597489908 15.1379315318677534
 -2.4328057192540977  7.0229051283037309 15.1379315318677534
  2.4328056705979013  7.0229051283037309 15.1379315318677534
  2.4328056705978987  1.4045810368974108  1.3761756438489074
  7.2984170604498981  1.4045810368974108  1.3761756438489074
 -0.0000000243281017  5.6183241054521513  1.3761756438489074
  4.8656113655238977  5.6183241054521513  1.3761756438489074
  9.7312227553758976  0.0000000140458298  4.1285268214526765
  4.8656113655238977  0.0000000140458298  4.1285268214526765
  7.2984170604498972  4.2137430826005708  4.1285268214526765
  2.4328056705978987  4.2137430826005708  4.1285268214526765
  0.6311123154424262  3.9196012055908933  6.8808779990564464
  5.5067237052944256  3.9196012055908933  6.8808779990564464
 -1.7916933794835741  8.1333442741456334  6.8808779990564464
  3.0739180103684269  8.1333442741456334  6.8808779990564464
 -1.2822247038691426  2.8091620597489908  6.8808779990564464
  3.5833866859828571  2.8091620597489908  6.8808779990564464
 -3.7150303987951423  7.0229051283037309  6.8808779990564464
  1.1505809910568567  7.0229051283037309  6.8808779990564464
  1.7916933308273781  2.5150201827393124  9.6332291766602154
  6.6573047206793765  2.5150201827393124  9.6332291766602154
 -0.6411123640986223  6.7287632512940538  9.6332291766602154
  4.2244990257533761  6.7287632512940538  9.6332291766602154
  1.7916933308273784  0.2941418910555076  9.6332291766602154
  6.6573047206793792  0.2941418910555076  9.6332291766602154
 -0.6411123640986225  4.5078849596102497  9.6332291766602154
  4.2244990257533779  4.5078849596102497  9.6332291766602154
  3.7150303501389410  1.4045810368974110  9.6332291766602154
  8.5806417399909396  1.4045810368974110  9.6332291766602154
  1.2822246552129408  5.6183241054521513  9.6332291766602154
  6.1478360450649419  5.6183241054521513  9.6332291766602154
  0.6411123154424190  1.6987229139070885  6.8808779990564464
  5.5067237052944193  1.6987229139070885  6.8808779990564464
 -1.7916933794835810  5.9124659824618293  6.8808779990564464
  3.0739180103684198  5.9124659824618293  6.8808779990564464
  0.6411123154424180  1.1104391598877328 12.3855803542639862
  5.5067237052944185  1.1104391598877328 12.3855803542639862
 -1.7916933794835828  5.3241822284424734 12.3855803542639862
  3.0739180103684176  5.3241822284424734 12.3855803542639862
  3.5833866859828580  0.0000000140458298 12.3855803542639862
  8.4489980758348544  0.0000000140458298 12.3855803542639862
  1.1505809910568570  4.2137430826005708 12.3855803542639862
  6.0161923809088567  4.2137430826005708 12.3855803542639862
 -0.6411123640986149  3.9196012055908924 15.1379315318677534
  4.2244990257533850  3.9196012055908924 15.1379315318677534
 -3.0739180590246153  8.1333442741456334 15.1379315318677534
  1.7916933308273844  8.1333442741456334 15.1379315318677534
 -0.6411123640986220  1.6987229139070885 15.1379315318677534
  4.2244990257533779  1.6987229139070885 15.1379315318677534
 -3.0739180590246220  5.9124659824618293 15.1379315318677534
  1.7916933308273770  5.9124659824618293 15.1379315318677534
  1.2822246552129393  2.8091620597489908 15.1379315318677534
  6.1478360450649392  2.8091620597489908 15.1379315318677534
 -1.1505810397130611  7.0229051283037309 15.1379315318677534
  3.7150303501389383  7.0229051283037309 15.1379315318677534
  7.9395294002204198  3.1033039367586697 12.3855803542639862
  3.0739180103684203  3.1033039367586697 12.3855803542639862
  5.5067237052944193  7.3170470053134098 12.3855803542639862
  0.6411123154424186  7.3170470053134098 12.3855803542639862
  3.0739180103684181  2.5150201827393133  1.3761756438489074
  7.9395294002204171  2.5150201827393133  1.3761756438489074
  0.6411123154424168  6.7287632512940556  1.3761756438489074
  5.5067237052944158  6.7287632512940556  1.3761756438489074
  1.1505809910568576  1.4045810368974108  1.3761756438489074
  6.0161923809088576  1.4045810368974108  1.3761756438489074
 -1.2822247038691426  5.6183241054521513  1.3761756438489074
  3.5833866859828571  5.6183241054521513  1.3761756438489074
  9.0901104156053769  1.1104391598877321  4.1285268214526765
  4.2244990257533761  1.1104391598877321  4.1285268214526765
  6.6573047206793765  5.3241822284424725  4.1285268214526765
  1.7916933308273779  5.3241822284424725  4.1285268214526765
  1.7916933308273775  3.1033039367586697  4.1285268214526765
  6.6573047206793774  3.1033039367586697  4.1285268214526765
 -0.6411123640986229  7.3170470053134098  4.1285268214526765
  4.2244990257533770  7.3170470053134098  4.1285268214526765
  1.2822246552129393  0.0000000140458301  4.1285268214526765
  6.1478360450649374  0.0000000140458301  4.1285268214526765
 -1.1505810397130609  4.2137430826005708  4.1285268214526765
  3.7150303501389383  4.2137430826005708  4.1285268214526765
  3.0739180103684189  0.2941418910555083  1.3761756438489074
  7.9395294002204189  0.2941418910555083  1.3761756438489074
  0.6411123154424190  4.5078849596102497  1.3761756438489074
  5.5067237052944185  4.5078849596102497  1.3761756438489074
  9.7312227553758959  0.0000000140458294  8.2570535878583318
  4.8656113655238986  0.0000000140458294  8.2570535878583318
  7.2984170604498972  4.2137430826005700  8.2570535878583318
  2.4328056705978973  4.2137430826005700  8.2570535878583318
  2.4328056705978987  1.4045810368974110  5.5047024102545619
  7.2984170604498981  1.4045810368974110  5.5047024102545619
 -0.0000000243281019  5.6183241054521513  5.5047024102545619
  4.8656113655238977  5.6183241054521513  5.5047024102545619
  2.4328056705978987  1.4045810368974105 13.7617559430658680
  7.2984170604498955  1.4045810368974105 13.7617559430658680
 -0.0000000243281017  5.6183241054521504 13.7617559430658680
  4.8656113655238977  5.6183241054521504 13.7617559430658680
 -0.0000000243280975  2.8091620597489908 11.0094047654621008
  4.8656113655239039  2.8091620597489908 11.0094047654621008
 -2.4328057192540977  7.0229051283037309 11.0094047654621008
  2.4328056705979031  7.0229051283037309 11.0094047654621008
 -0.0000000243280971  2.8091620597489908  2.7523512326507928
  4.8656113655239031  2.8091620597489908  2.7523512326507928
 -2.4328057192540977  7.0229051283037309  2.7523512326507928
  2.4328056705979022  7.0229051283037309  2.7523512326507928
  9.7312227553758976  0.0000000140458301  0.0000000550470229
  4.8656113655238986  0.0000000140458301  0.0000000550470229
  7.2984170604498972  4.2137430826005708  0.0000000550470229
  2.4328056705978982  4.2137430826005708  0.0000000550470229
