C  O  Ca
 1.0000000000000000
    10.3872728210273984    0.0000000000000000    0.0000000000000000
    -5.1936364105137001    8.9956421390493784    0.0000000000000000
    -0.0000000000000004   -0.0000000000000008   17.6107553052150898
 C   O   Ca 
  24  72  24
Cartesian
 -0.0000000259682032  2.9985473946758709  7.3378147692087969
  5.1936363845454965  2.9985473946758709  7.3378147692087969
 -2.5968182312250523  7.4963684642005619  7.3378147692087969
  2.5968181792886464  7.4963684642005619  7.3378147692087969
  2.5968181792886345  1.4992737048343083 10.2729406534113110
  7.7904545898023319  1.4992737048343083 10.2729406534113110
 -0.0000000259682144  5.9970947743589962 10.2729406534113110
  5.1936363845454849  5.9970947743589962 10.2729406534113110
 10.3872727950591841  0.0000000149927457 13.2080665376138242
  5.1936363845454840  0.0000000149927457 13.2080665376138242
  7.7904545898023363  4.4978210845174340 13.2080665376138242
  2.5968181792886336  4.4978210845174340 13.2080665376138242
 -0.0000000259682025  2.9985473946758701 16.1431924218163410
  5.1936363845454974  2.9985473946758701 16.1431924218163410
 -2.5968182312250527  7.4963684642005610 16.1431924218163410
  2.5968181792886469  7.4963684642005610 16.1431924218163410
  2.5968181792886345  1.4992737048343083  1.4675630008037652
  7.7904545898023345  1.4992737048343083  1.4675630008037652
 -0.0000000259682146  5.9970947743589971  1.4675630008037652
  5.1936363845454849  5.9970947743589971  1.4675630008037652
 10.3872727950591823  0.0000000149927457  4.4026888850062811
  5.1936363845454840  0.0000000149927457  4.4026888850062811
  7.7904545898023327  4.4978210845174349  4.4026888850062811
  2.5968181792886340  4.4978210845174349  4.4026888850062811
  0.6503374654866518  4.1249649719425641  7.3478147692087958
  5.8439738760003515  4.1249649719425641  7.3378147692087969
 -1.9464807397701975  8.6227860414672524  7.3378147692087969
  3.2471556707435019  8.6227860414672524  7.3378147692087969
 -1.3006750088779178  2.9985473946758709  7.3378147692087969
  3.8929614016357812  2.9985473946758709  7.3378147692087969
 -3.8974932141347667  7.4963684642005619  7.3378147692087969
  1.2961431963789303  7.4963684642005619  7.3378147692087969
  1.9464806878337835  2.6256912821010019 10.2729406534113110
  7.1401170983474822  2.6256912821010019 10.2729406534113110
 -0.6503375174230659  7.1235123516256902 10.2729406534113110
  4.5432988930906326  7.1235123516256902 10.2729406534113110
  1.9464806878337833  0.3728561275676152 10.2729406534113110
  7.1401170983474822  0.3728561275676152 10.2729406534113110
 -0.6503375174230663  4.8706771970923031 10.2729406534113110
  4.5432988930906335  4.8706771970923031 10.2729406534113110
  3.8974931621983355  1.4992737048343081 10.2729406534113110
  9.0911295727120329  1.4992737048343081 10.2729406534113110
  1.3006749569414862  5.9970947743589962 10.2729406534113110
  6.4943113674551860  5.9970947743589962 10.2729406534113110
  0.6503374654866362  1.8721298174091778  7.3378147692087969
  5.8439738760003364  1.8721298174091778  7.3378147692087969
 -1.9464807397702131  6.3699508869338679  7.3378147692087969
  3.2471556707434872  6.3699508869338679  7.3378147692087969
  0.6503374654866365  1.1264175922594382 13.2080665376138242
  5.8439738760003372  1.1264175922594382 13.2080665376138242
 -1.9464807397702129  5.6242386617841271 13.2080665376138242
  3.2471556707434859  5.6242386617841271 13.2080665376138242
  3.8929614016357821  0.0000000149927457 13.2080665376138242
  9.0865978121494813  0.0000000149927457 13.2080665376138242
  1.2961431963789323  4.4978210845174340 13.2080665376138242
  6.4897796068926317  4.4978210845174340 13.2080665376138242
 -0.6503375174230506  4.1249649719425623 16.1431924218163410
  4.5432988930906504  4.1249649719425623 16.1431924218163410
 -3.2471557226799006  8.6227860414672541 16.1431924218163410
  1.9464806878337999  8.6227860414672541 16.1431924218163410
 -0.6503375174230662  1.8721298174091794 16.1431924218163410
  4.5432988930906344  1.8721298174091794 16.1431924218163410
 -3.2471557226799157  6.3699508869338679 16.1431924218163410
  1.9464806878337821  6.3699508869338679 16.1431924218163410
  1.3006749569414866  2.9985473946758701 16.1431924218163410
  6.4943113674551869  2.9985473946758701 16.1431924218163410
 -1.2961432483153630  7.4963684642005610 16.1431924218163410
  3.8974931621983355  7.4963684642005610 16.1431924218163410
  8.4407920812571842  3.3714035072507413 13.2080665376138242
  3.2471556707434854  3.3714035072507413 13.2080665376138242
  5.8439738760003346  7.8692245767754292 13.2080665376138242
  0.6503374654866356  7.8692245767754292 13.2080665376138242
  3.2471556707434890  2.6256912821010019  1.4675630008037652
  8.4407920812571895  2.6256912821010019  1.4675630008037652
  0.6503374654866390  7.1235123516256911  1.4675630008037652
  5.8439738760003390  7.1235123516256911  1.4675630008037652
  1.2961431963789318  1.4992737048343083  1.4675630008037652
  6.4897796068926308  1.4992737048343083  1.4675630008037652
 -1.3006750088779175  5.9970947743589971  1.4675630008037652
  3.8929614016357816  5.9970947743589971  1.4675630008037652
  9.7369353036043318  1.1264175922594386  4.4026888850062811
  4.5432988930906326  1.1264175922594386  4.4026888850062811
  7.1401170983474813  5.6242386617841280  4.4026888850062811
  1.9464806878337828  5.6242386617841280  4.4026888850062811
  1.9464806878337833  3.3714035072507413  4.4026888850062811
  7.1401170983474831  3.3714035072507413  4.4026888850062811
 -0.6503375174230670  7.8692245767754301  4.4026888850062811
  4.5432988930906335  7.8692245767754301  4.4026888850062811
  1.3006749569414870  0.0000000149927455  4.4026888850062811
  6.4943113674551851  0.0000000149927455  4.4026888850062811
 -1.2961432483153630  4.4978210845174349  4.4026888850062811
  3.8974931621983351  4.4978210845174349  4.4026888850062811
  3.2471556707434877  0.3728561275676150  1.4675630008037652
  8.4407920812571877  0.3728561275676150  1.4675630008037652
  0.6503374654866381  4.8706771970923040  1.4675630008037652
  5.8439738760003381  4.8706771970923040  1.4675630008037652
 10.3872727950591806  0.0000000149927448  8.8053777113100526
  5.1936363845454849  0.0000000149927448  8.8053777113100526
  7.7904545898023327  4.4978210845174340  8.8053777113100526
  2.5968181792886345  4.4978210845174340  8.8053777113100526
  2.5968181792886340  1.4992737048343086  5.8702518271075377
  7.7904545898023336  1.4992737048343086  5.8702518271075377
 -0.0000000259682162  5.9970947743589980  5.8702518271075377
  5.1936363845454840  5.9970947743589980  5.8702518271075377
  2.5968181792886331  1.4992737048343079 14.6756294797150826
  7.7904545898023363  1.4992737048343079 14.6756294797150826
 -0.0000000259682164  5.9970947743589971 14.6756294797150826
  5.1936363845454858  5.9970947743589971 14.6756294797150826
 -0.0000000259682027  2.9985473946758709 11.7405035955125676
  5.1936363845454965  2.9985473946758709 11.7405035955125676
 -2.5968182312250532  7.4963684642005610 11.7405035955125676
  2.5968181792886451  7.4963684642005610 11.7405035955125676
 -0.0000000259682028  2.9985473946758705  2.9351259429050227
  5.1936363845454956  2.9985473946758705  2.9351259429050227
 -2.5968182312250527  7.4963684642005610  2.9351259429050227
  2.5968181792886464  7.4963684642005610  2.9351259429050227
 10.3872727950591823  0.0000000149927459  0.0000000587025077
  5.1936363845454840  0.0000000149927459  0.0000000587025077
  7.7904545898023327  4.4978210845174349  0.0000000587025077
  2.5968181792886340  4.4978210845174349  0.0000000587025077
