Si
 1.0000000000000000
     5.3556813430096613    0.0000000000000000    0.0000000000000000
     0.0000000000000000    5.3556813430096613    0.0000000000000000
     0.0000000000000000    0.0000000000000000    5.3556813430096613
 Si 
   8
Selective dynamics
Cartesian
  1.3389203393024813  4.0167610081141563  1.3389203393024811   T   T   T
  0.0000000035500660  0.0000000008569105  2.6778406750548962   T   T   T
  1.3389203393024813  1.3389203366093256  4.0167610108073113   T   T   T
  0.0000000035500660  2.6778406723617412  0.0000000035500656   T   T   T
  4.0167610108073122  4.0167610081141563  4.0167610108073113   T   T   T
  2.6778406750548966  0.0000000008569105  0.0000000035500656   T   T   T
  4.0167610108073122  1.3389203366093256  1.3389203393024811   T   T   T
  2.6778406750548966  2.6778406723617412  2.6778406750548962   T   T   T
Cartesian
  0.0000000000000000  0.0000000000000000  0.0000000000000000
  0.0000000000000000  0.0000000000000000  0.0000000000000000
  0.0000000000000000  0.0000000000000000  0.0000000000000000
  0.0000000000000000  0.0000000000000000  0.0000000000000000
  0.0000000000000000  0.0000000000000000  0.0000000000000000
  0.0000000000000000  0.0000000000000000  0.0000000000000000
  0.0000000000000000  0.0000000000000000  0.0000000000000000
  0.0000000000000000  0.0000000000000000  0.0000000000000000
