C  O  Ca
 1.0000000000000000
     4.8654236379759217    0.0000000000000000   -0.0000000000000000
    -2.4327118189879600    4.2135804706604487    0.0000000000000000
    -0.0000000000000009    0.0000000000000001   16.4700867739304861
 C   O   Ca 
   6  18   6
Selective dynamics
Cartesian
 -0.0000000243271459  2.8090536611522321  6.8625362107046453   T   T   T
  2.4327117946608108  1.4045268375987492  9.6075506730263918   T   T   T
 -0.0000000243271501  0.0000000140452663 12.3525651353481400   T   T   T
 -0.0000000243271455  2.8090536611522321 15.0975795976698848   T   T   T
  2.4327117946608103  1.4045268375987492  1.3725072860611514   T   T   T
 -0.0000000243271496  0.0000000140452663  4.1175217483828979   T   T   T
  0.6411077531745694  3.9194849049127569  6.8625362107046453   T   T   T
 -1.2822155793305696  2.8090536611522321  6.8625362107046453   T   T   T
  1.7916040171591008  2.5149580813592745  9.6075506730263918   T   T   T
  1.7916040171591008  0.2940955938382241  9.6075506730263918   T   T   T
  3.7149273496642312  1.4045268375987490  9.6075506730263918   T   T   T
  0.6411077531745600  1.6986224173917079  6.8625362107046453   T   T   T
  0.6411077531745605  1.1104312578057904 12.3525651353481400   T   T   T
  3.5832080586453516  0.0000000140452663 12.3525651353481400   T   T   T
 -0.6411078018288509  3.9194849049127574 15.0975795976698848   T   T   T
 -0.6411078018288597  1.6986224173917075 15.0975795976698848   T   T   T
  1.2822155306762708  2.8090536611522321 15.0975795976698848   T   T   T
 -1.7916040658134005  3.1031492409451902 12.3525651353481400   T   T   T
  3.0738195721625230  2.5149580813592740  1.3725072860611514   T   T   T
  1.1504962396573908  1.4045268375987492  1.3725072860611514   T   T   T
 -0.6411078018288597  1.1104312578057909  4.1175217483828979   T   T   T
  1.7916040171591008  3.1031492409451897  4.1175217483828979   T   T   T
  1.2822155306762708  0.0000000140452661  4.1175217483828979   T   T   T
  3.0738195721625221  0.2940955938382246  1.3725072860611514   T   T   T
 -0.0000000243271501  0.0000000140452663  8.2350434418655194   T   T   T
  2.4327117946608108  1.4045268375987494  5.4900289795437720   T   T   T
  2.4327117946608103  1.4045268375987492 13.7250723665090142   T   T   T
 -0.0000000243271455  2.8090536611522321 10.9800579041872659   T   T   T
 -0.0000000243271459  2.8090536611522321  2.7450145172220255   T   T   T
 -0.0000000243271496  0.0000000140452665  0.0000000549002781   T   T   T
