C  O  Ca
 1.0000000000000000
     4.9657416511300649   -0.0000000000000000   -0.0000000000000000
    -2.4828708255650325    4.3004584185091206   -0.0000000000000000
    -0.0000000000000004   -0.0000000000000007   16.8096761919496700
 C   O   Ca 
   6  18   6
Selective dynamics
Cartesian
 -0.0000000248287413  2.8669722933409392  7.0040318026779369   T   T   T
  2.4828708007362912  1.4334861538378993  9.8056445013362143   T   T   T
 -0.0000000248287413  0.0000000143348595 12.6072571999944927   T   T   T
 -0.0000000248287413  2.8669722933409392 15.4088698986527710   T   T   T
  2.4828708007362912  1.4334861538378993  1.4008064053613802   T   T   T
 -0.0000000248287413  0.0000000143348595  4.2024191040196577   T   T   T
  0.6441656130951386  3.9826999067151316  7.0040318026779369   T   T   T
 -1.2883313006765023  2.8669722933409387  7.0040318026779369   T   T   T
  1.8387051628124105  2.5492137672120747  9.8056445013362143   T   T   T
  1.8387051628124109  0.3177585404637207  9.8056445013362143   T   T   T
  3.7712020765840513  1.4334861538378996  9.8056445013362143   T   T   T
  0.6441656130951395  1.7512446799667689  7.0040318026779369   T   T   T
  0.6441656130951386  1.1157276277090384 12.6072571999944927   T   T   T
  3.6774103504535627  0.0000000143348591 12.6072571999944927   T   T   T
 -0.6441656627526221  3.9826999067151303 15.4088698986527710   T   T   T
 -0.6441656627526217  1.7512446799667685 15.4088698986527710   T   T   T
  1.2883312510190190  2.8669722933409396 15.4088698986527710   T   T   T
 -1.8387052124698930  3.1847308194698187 12.6072571999944927   T   T   T
  3.1270364386601699  2.5492137672120765  1.4008064053613802   T   T   T
  1.1945395248885302  1.4334861538378989  1.4008064053613802   T   T   T
 -0.6441656627526221  1.1157276277090373  4.2024191040196577   T   T   T
  1.8387051628124109  3.1847308194698187  4.2024191040196577   T   T   T
  1.2883312510190190  0.0000000143348597  4.2024191040196577   T   T   T
  3.1270364386601708  0.3177585404637213  1.4008064053613802   T   T   T
 -0.0000000248287417  0.0000000143348595  8.4048381520070770   T   T   T
  2.4828708007362912  1.4334861538378996  5.6032254533487977   T   T   T
  2.4828708007362907  1.4334861538378996 14.0080635493236336   T   T   T
 -0.0000000248287413  2.8669722933409396 11.2064508506653553   T   T   T
 -0.0000000248287417  2.8669722933409396  2.8016127546905203   T   T   T
 -0.0000000248287413  0.0000000143348597  0.0000000560322411   T   T   T
