Kpoints for unitcell relaxation
0
Monkhorst
3 3 3
