C  O  Ca
 1.0000000000000000
     5.0160942163422684    0.0000000000000000   -0.0000000000000000
    -2.5080471081711346    4.3440650191286005   -0.0000000000000000
    -0.0000000000000003    0.0000000000000002   17.0248526449717765
 C   O   Ca 
   6  18   6
Selective dynamics
Cartesian
 -0.0000000250805149  2.8960433605659706  7.0936886588210788   T   T   T
  2.5080470830906165  1.4480216875231038  9.9311640996497079   T   T   T
 -0.0000000250805181  0.0000000144802370 12.7686395404783362   T   T   T
 -0.0000000250805144  2.8960433605659706 15.6061149813069662   T   T   T
  2.5080470830906161  1.4480216875231038  1.4187377771638214   T   T   T
 -0.0000000250805177  0.0000000144802370  4.2562132179924506   T   T   T
  0.6455796961449342  4.0142202380645964  7.0936886588210788   T   T   T
 -1.2911594675314118  2.8960433605659710  7.0936886588210788   T   T   T
  1.8624673618651693  2.5661985650217316  9.9311640996497079   T   T   T
  1.8624673618651693  0.3298448100244784  9.9311640996497079   T   T   T
  3.7992065255415106  1.4480216875231036  9.9311640996497079   T   T   T
  0.6455796961449289  1.7778664830673450  7.0936886588210788   T   T   T
  0.6455796961449294  1.1181768919788633 12.7686395404783362   T   T   T
  3.7249347488108562  0.0000000144802375 12.7686395404783362   T   T   T
 -0.6455797463059599  4.0142202380645964 15.6061149813069662   T   T   T
 -0.6455797463059647  1.7778664830673454 15.6061149813069662   T   T   T
  1.2911594173703755  2.8960433605659701 15.6061149813069662   T   T   T
 -1.8624674120262050  3.2258881561102104 12.7686395404783362   T   T   T
  3.1536268043160627  2.5661985650217316  1.4187377771638214   T   T   T
  1.2168876406397224  1.4480216875231042  1.4187377771638214   T   T   T
 -0.6455797463059647  1.1181768919788633  4.2562132179924506   T   T   T
  1.8624673618651693  3.2258881561102108  4.2562132179924506   T   T   T
  1.2911594173703755  0.0000000144802368  4.2562132179924506   T   T   T
  3.1536268043160622  0.3298448100244780  1.4187377771638214   T   T   T
 -0.0000000250805181  0.0000000144802375  8.5124263792353929   T   T   T
  2.5080470830906165  1.4480216875231040  5.6749509384067647   T   T   T
  2.5080470830906161  1.4480216875231042 14.1873772608926494   T   T   T
 -0.0000000250805144  2.8960433605659710 11.3499018200640229   T   T   T
 -0.0000000250805149  2.8960433605659710  2.8374754975781356   T   T   T
 -0.0000000250805177  0.0000000144802372  0.0000000567495073   T   T   T
