C  O  Ca
 1.0000000000000000
     9.6881294580736359    0.0000000000000000    0.0000000000000000
    -4.8440647290368171    8.3901662258441334    0.0000000000000000
    -0.0000000000000009    0.0000000000000000   16.4254160058256105
 C   O   Ca 
  24  72  24
Cartesian
 -0.0050803979702840  2.7967220892650109  6.8353100402601994
  4.8440647048164625  2.7967220892650109  6.8439233905120487
 -2.4220323887387649  6.9918052021870789  6.8439233905120487
  2.4220323402980526  6.9918052021870789  6.8439233905120487
  2.4220323402980548  1.3983610516243146  9.5814927248163180
  7.2660970693348723  1.3983610516243146  9.5814927248163180
 -0.0000000242203531  5.5934441645463808  9.5814927248163180
  4.8440647048164633  5.5934441645463808  9.5814927248163180
  9.6881294338532840  0.0000000139836183 12.3190620591205864
  4.8440647048164633  0.0000000139836183 12.3190620591205864
  7.2660970693348732  4.1950831269056845 12.3190620591205864
  2.4220323402980553  4.1950831269056845 12.3190620591205864
 -0.0000000242203554  2.7967220892650109 15.0566313934248583
  4.8440647048164642  2.7967220892650109 15.0566313934248583
 -2.4220323887387645  6.9918052021870789 15.0566313934248583
  2.4220323402980548  6.9918052021870789 15.0566313934248583
  2.4220323402980548  1.3983610516243146  1.3687847219035119
  7.2660970693348732  1.3983610516243146  1.3687847219035119
 -0.0000000242203531  5.5934441645463808  1.3687847219035119
  4.8440647048164642  5.5934441645463808  1.3687847219035119
  9.6881294338532822  0.0000000139836183  4.1063540562077812
  4.8440647048164642  0.0000000139836183  4.1063540562077812
  7.2660970693348741  4.1950831269056845  4.1063540562077812
  2.4220323402980557  4.1950831269056845  4.1063540562077812
  0.6417623740061098  3.9082871693805048  6.8439233905120487
  5.4858271030429293  3.9082871693805048  6.8439233905120487
 -1.7802699905122987  8.1033702823025724  6.8439233905120487
  3.0637947385245199  8.1033702823025724  6.8439233905120487
 -1.2835248206732852  2.7967220892650109  6.8439233905120487
  3.5605399083635323  2.7967220892650109  6.8439233905120487
 -3.7055571851916937  6.9918052021870789  6.8439233905120487
  1.1385075438451235  6.9918052021870789  6.8439233905120487
  1.7802699420715875  2.5099261317398165  9.5814927248163180
  6.6243346711084046  2.5099261317398165  9.5814927248163180
 -0.6417624224468211  6.7050092446618832  9.5814927248163180
  4.2023023065899956  6.7050092446618832  9.5814927248163180
  1.7802699420715868  0.2867959715088148  9.5814927248163180
  6.6243346711084037  0.2867959715088148  9.5814927248163180
 -0.6417624224468215  4.4818790844308811  9.5814927248163180
  4.2023023065899965  4.4818790844308811  9.5814927248163180
  3.7055571367509890  1.3983610516243143  9.5814927248163180
  8.5496218657878060  1.3983610516243143  9.5814927248163180
  1.2835247722325807  5.5934441645463808  9.5814927248163180
  6.1275895012693971  5.5934441645463808  9.5814927248163180
  0.6417623740061146  1.6851570091495074  6.8439233905120487
  5.4858271030429346  1.6851570091495074  6.8439233905120487
 -1.7802699905122943  5.8802401220715739  6.8439233905120487
  3.0637947385245243  5.8802401220715739  6.8439233905120487
  0.6417623740061140  1.1115650940991106 12.3190620591205864
  5.4858271030429311  1.1115650940991106 12.3190620591205864
 -1.7802699905122941  5.3066482070211771 12.3190620591205864
  3.0637947385245230  5.3066482070211771 12.3190620591205864
  3.5605399083635270  0.0000000139836183 12.3190620591205864
  8.4046046374003485  0.0000000139836183 12.3190620591205864
  1.1385075438451193  4.1950831269056845 12.3190620591205864
  5.9825722728819377  4.1950831269056845 12.3190620591205864
 -0.6417624224468248  3.9082871693805048 15.0566313934248583
  4.2023023065899929  3.9082871693805048 15.0566313934248583
 -3.0637947869652336  8.1033702823025724 15.0566313934248583
  1.7802699420715837  8.1033702823025724 15.0566313934248583
 -0.6417624224468197  1.6851570091495076 15.0566313934248583
  4.2023023065899983  1.6851570091495076 15.0566313934248583
 -3.0637947869652287  5.8802401220715739 15.0566313934248583
  1.7802699420715895  5.8802401220715739 15.0566313934248583
  1.2835247722325842  2.7967220892650109 15.0566313934248583
  6.1275895012694033  2.7967220892650109 15.0566313934248583
 -1.1385075922858243  6.9918052021870789 15.0566313934248583
  3.7055571367509939  6.9918052021870789 15.0566313934248583
  7.9078594675613436  3.0835180467902057 12.3190620591205864
  3.0637947385245257  3.0835180467902057 12.3190620591205864
  5.4858271030429373  7.2786011597122711 12.3190620591205864
  0.6417623740061188  7.2786011597122711 12.3190620591205864
  3.0637947385245305  2.5099261317398165  1.3687847219035119
  7.9078594675613481  2.5099261317398165  1.3687847219035119
  0.6417623740061219  6.7050092446618832  1.3687847219035119
  5.4858271030429391  6.7050092446618832  1.3687847219035119
  1.1385075438451167  1.3983610516243146  1.3687847219035119
  5.9825722728819342  1.3983610516243146  1.3687847219035119
 -1.2835248206732917  5.5934441645463808  1.3687847219035119
  3.5605399083635265  5.5934441645463808  1.3687847219035119
  9.0463670356268171  1.1115650940991109  4.1063540562077812
  4.2023023065899965  1.1115650940991109  4.1063540562077812
  6.6243346711084081  5.3066482070211780  4.1063540562077812
  1.7802699420715877  5.3066482070211780  4.1063540562077812
  1.7802699420715893  3.0835180467902066  4.1063540562077812
  6.6243346711084081  3.0835180467902066  4.1063540562077812
 -0.6417624224468191  7.2786011597122728  4.1063540562077812
  4.2023023065899983  7.2786011597122728  4.1063540562077812
  1.2835247722325802  0.0000000139836180  4.1063540562077812
  6.1275895012693979  0.0000000139836180  4.1063540562077812
 -1.1385075922858283  4.1950831269056845  4.1063540562077812
  3.7055571367509894  4.1950831269056845  4.1063540562077812
  3.0637947385245297  0.2867959715088145  1.3687847219035119
  7.9078594675613463  0.2867959715088145  1.3687847219035119
  0.6417623740061213  4.4818790844308811  1.3687847219035119
  5.4858271030429382  4.4818790844308811  1.3687847219035119
  9.6881294338532822  0.0000000139836178  8.2127080576641838
  4.8440647048164625  0.0000000139836178  8.2127080576641838
  7.2660970693348732  4.1950831269056845  8.2127080576641838
  2.4220323402980548  4.1950831269056845  8.2127080576641838
  2.4220323402980553  1.3983610516243148  5.4751387233599162
  7.2660970693348723  1.3983610516243148  5.4751387233599162
 -0.0000000242203534  5.5934441645463817  5.4751387233599162
  4.8440647048164642  5.5934441645463817  5.4751387233599162
  2.4220323402980544  1.3983610516243143 13.6878467262727206
  7.2660970693348723  1.3983610516243143 13.6878467262727206
 -0.0000000242203537  5.5934441645463808 13.6878467262727206
  4.8440647048164633  5.5934441645463808 13.6878467262727206
 -0.0000000242203554  2.7967220892650109 10.9502773919684540
  4.8440647048164642  2.7967220892650109 10.9502773919684540
 -2.4220323887387640  6.9918052021870789 10.9502773919684540
  2.4220323402980553  6.9918052021870789 10.9502773919684540
 -0.0000000242203554  2.7967220892650109  2.7375693890556470
  4.8440647048164625  2.7967220892650109  2.7375693890556470
 -2.4220323887387640  6.9918052021870789  2.7375693890556470
  2.4220323402980530  6.9918052021870789  2.7375693890556470
  9.6881294338532822  0.0000000139836185  0.0000000547513777
  4.8440647048164633  0.0000000139836185  0.0000000547513777
  7.2660970693348741  4.1950831269056845  0.0000000547513777
  2.4220323402980553  4.1950831269056845  0.0000000547513777
