30
Lattice="4.99959539 0.0 0.0 -2.4997977 4.32977662 0.0 0.0 0.0 16.81153888" Properties=species:S:1:pos:R:3 init_sgn=167 task="unitcell optimization" ratio=#N/A sgn=#N/A opt=pre opt_conv=#N/A opt_steps=#N/A force_conv=T e_fr_energy=-282.0375671386719 e_0_energy=-282.0375671386719 force="_JSON [[7.802154868841171e-07, 7.166527211666107e-07, 1.9959406927227974e-07], [-2.671731635928154e-08, -2.657179720699787e-08, -2.962480323276395e-07], [4.862085916101933e-07, 5.702850103261881e-07, -4.659523256123066e-08], [1.0689836926758289e-07, 8.183997124433517e-07, 2.260785549879074e-07], [-5.931168516326579e-07, -1.361020309786909e-07, -1.642803226786782e-07], [3.9792138295524637e-07, 1.0017921567850863e-06, 7.584458217024803e-08], [-0.15491506457328796, -0.26832038164138794, -3.368477337062359e-07], [0.30982938408851624, -2.401793608441949e-08, -3.309978637844324e-07], [0.1549149602651596, -0.26832085847854614, 4.15460704061843e-07], [0.15491513907909393, 0.26832032203674316, 6.042286599949875e-07], [-0.30983006954193115, -4.9534719437360764e-08, 5.879375066797365e-07], [-0.15491512417793274, 0.26832059025764465, -3.793784912886622e-07], [-0.15491540729999542, -0.268321692943573, 2.0227162167429924e-07], [0.30982986092567444, -1.5858131519053131e-07, 8.849747246131301e-08], [0.15491443872451782, -0.26832038164138794, -3.677611744024034e-07], [0.15491420030593872, 0.2683202624320984, -3.8651342038065195e-07], [-0.30982935428619385, 2.4796463549137115e-08, -3.9559381548315287e-07], [-0.15491506457328796, 0.2683210074901581, 3.1944364309310913e-07], [-0.1549142748117447, -0.26831933856010437, 2.707711246330291e-07], [0.3098292946815491, -5.4249539971351624e-08, 1.5734258340671659e-07], [0.15491484105587006, -0.26832062005996704, -2.0920197130180895e-07], [0.15491440892219543, 0.26832056045532227, -2.7817441150546074e-07], [-0.3098303973674774, -3.334571374580264e-07, -2.4639302864670753e-07], [-0.15491428971290588, 0.26832008361816406, 1.178630384401913e-07], [-1.94646418094635e-07, 1.3387762010097504e-08, -1.964823468370014e-07], [-2.2048922687645245e-09, -4.0978193283081055e-07, 9.387731552124023e-07], [-3.497698912724445e-07, -4.9807614033170466e-08, 6.314367055892944e-07], [1.1986003300989978e-07, -3.1956005841493607e-08, -1.3958488125354052e-06], [-1.8114224076271057e-07, -1.025036908686161e-07, -1.077714841812849e-07], [2.1845835362910293e-07, -1.421431079506874e-07, 6.300069799181074e-08]]" position="_JSON [[-2.833131029540474e-08, 2.886517761099255, 7.0048079227051305], [2.4997977183313105, 1.4432588589007445, 9.80673095729487], [0.0, 0.0, 12.60865416], [-2.833131029540474e-08, 2.886517761099255, 15.41057736270513], [2.4997977183313105, 1.4432588589007445, 1.4009615172948704], [0.0, 0.0, 4.20288472], [0.6471942688787616, 4.007491082818818, 7.0048079227051305], [-1.2943885253485337, 2.886517761099255, 7.0048079227051305], [1.8526034435302285, 2.5642322239180735, 9.80673095729487], [1.8526034211212377, 0.3222855371811816, 9.80673095729487], [3.7941862153485335, 1.4432588589007445, 9.80673095729487], [0.6471942464697716, 1.7655443960819261, 7.0048079227051305], [0.6471942722120954, 1.120973365017329, 12.60865416], [3.705206842986822, 0.0, 12.60865416], [-0.6471942781344152, 4.007491082818818, 15.41057736270513], [-0.6471942505474517, 1.7655443960819261, 15.41057736270513], [1.2943885186818667, 2.886517761099255, 15.41057736270513], [-1.8526034251989176, 3.20880325498267, 12.60865416], [3.146991940547452, 2.5642322239180735, 1.4009615172948704], [1.2054091713181327, 1.4432588589007445, 1.4009615172948704], [-0.6471942748010819, 1.120973365017329, 4.20288472], [1.8526034177879045, 3.20880325498267, 4.20288472], [1.2943885470131773, 0.0, 4.20288472], [3.146991968134415, 0.3222855371811816, 1.4009615172948704], [0.0, 0.0, 8.40576944], [2.4997977183313105, 1.4432588589007445, 5.60384623729487], [2.4997977183313105, 1.4432588589007445, 14.009615677294871], [-2.833131029540474e-08, 2.886517761099255, 11.20769264270513], [-2.833131029540474e-08, 2.886517761099255, 2.8019232027051295], [0.0, 0.0, 0.0]]" formula=CCaO3 symbol="_JSON [\"C\", \"C\", \"C\", \"C\", \"C\", \"C\", \"O\", \"O\", \"O\", \"O\", \"O\", \"O\", \"O\", \"O\", \"O\", \"O\", \"O\", \"O\", \"O\", \"O\", \"O\", \"O\", \"O\", \"O\", \"Ca\", \"Ca\", \"Ca\", \"Ca\", \"Ca\", \"Ca\"]" stress="-0.000784128496889025 -4.504068229493896e-09 5.445827788719271e-09 -4.504068229493896e-09 -0.000784102245233953 1.1874361494079722e-09 5.445827788719271e-09 1.1874361494079722e-09 -0.009736641310155392" stress_voigt="-0.000784128496889025 -0.000784102245233953 -0.009736641310155392 1.1874361494079722e-09 5.445827788719271e-09 -4.504068229493896e-09" volume=363.9215882981706 a=4.99959539 b=4.999595395631921 c=16.81153888 alpha=90.0 beta=90.0 gamma=120.00000002890131 pbc="T T T"
C       -0.00000003       2.88651776       7.00480792
C        2.49979772       1.44325886       9.80673096
C        0.00000000       0.00000000      12.60865416
C       -0.00000003       2.88651776      15.41057736
C        2.49979772       1.44325886       1.40096152
C        0.00000000       0.00000000       4.20288472
O        0.64719427       4.00749108       7.00480792
O       -1.29438853       2.88651776       7.00480792
O        1.85260344       2.56423222       9.80673096
O        1.85260342       0.32228554       9.80673096
O        3.79418622       1.44325886       9.80673096
O        0.64719425       1.76554440       7.00480792
O        0.64719427       1.12097337      12.60865416
O        3.70520684       0.00000000      12.60865416
O       -0.64719428       4.00749108      15.41057736
O       -0.64719425       1.76554440      15.41057736
O        1.29438852       2.88651776      15.41057736
O       -1.85260343       3.20880325      12.60865416
O        3.14699194       2.56423222       1.40096152
O        1.20540917       1.44325886       1.40096152
O       -0.64719427       1.12097337       4.20288472
O        1.85260342       3.20880325       4.20288472
O        1.29438855       0.00000000       4.20288472
O        3.14699197       0.32228554       1.40096152
Ca       0.00000000       0.00000000       8.40576944
Ca       2.49979772       1.44325886       5.60384624
Ca       2.49979772       1.44325886      14.00961568
Ca      -0.00000003       2.88651776      11.20769264
Ca      -0.00000003       2.88651776       2.80192320
Ca       0.00000000       0.00000000       0.00000000
30
Lattice="5.016094216342263 -4.0053553847691875e-18 1.5364149014429873e-17 -2.5080471081711306 4.3440650191286085 2.9594143649823506e-17 5.132415446397662e-17 1.4804875169904098e-15 17.024852644971777" Properties=species:S:1:pos:R:3 init_sgn=167 task="unitcell optimization" ratio=#N/A sgn=167 opt=post opt_conv=T opt_steps=1843 force_conv=T e_fr_energy=-282.0814514160156 e_0_energy=-282.0814514160156 force="_JSON [[1.1064577256126206e-23, 3.1940684596142026e-23, 1.9559196010348606e-25], [7.376385100371105e-24, -6.388136919228405e-23, -5.255611929404156e-40], [2.212915451225241e-23, 1.277627368068463e-23, 7.823678404139442e-25], [-1.1064577256126206e-23, -3.1940684596142026e-23, 3.911839202069721e-25], [2.950554040148442e-23, 2.555254736136926e-23, -2.200409659016295e-25], [-2.950554040148442e-23, -2.555254736136926e-23, -2.444899593738213e-25], [-1.6195590433198959e-06, -2.8051586014044005e-06, -3.0595910255568146e-23], [3.2391180866397917e-06, -4.18354907814913e-24, 8.356459578130449e-24], [1.6195590433198959e-06, -2.8051586014044005e-06, -1.9109980301858052e-23], [1.6195590433198959e-06, 2.8051586014044005e-06, 3.372538457545232e-23], [-3.2391180866397917e-06, 2.586514769455938e-24, -8.356459578130449e-24], [-1.6195590433198959e-06, 2.8051586014044005e-06, 3.331523784424232e-25], [-1.6195590433198959e-06, -2.8051586014044005e-06, -2.824880924882045e-23], [3.2391180866397917e-06, -2.586514769455938e-24, 9.921195160350724e-24], [1.6195590433198959e-06, -2.8051586014044005e-06, -2.0674715884078327e-23], [1.6195590433198959e-06, 2.8051586014044005e-06, 2.932456308805224e-23], [-3.2391180866397917e-06, 4.18354907814913e-24, -2.0975166576036686e-24], [-1.6195590433198959e-06, 2.8051586014044005e-06, 8.939199017426262e-24], [-1.6195590433198959e-06, -2.8051586014044005e-06, -2.8444399421660946e-23], [3.2391180866397917e-06, -4.18354907814913e-24, 1.1485930742571e-23], [1.6195590433198959e-06, -2.8051586014044005e-06, -1.7545244719637777e-23], [1.6195590433198959e-06, 2.8051586014044005e-06, 2.824880924882045e-23], [-3.2391180866397917e-06, 4.18354907814913e-24, -3.66225243703917e-24], [-1.6195590433198959e-06, 2.8051586014044005e-06, 2.3804188626240688e-23], [-2.0746083341312767e-24, -3.9925855252139466e-25, 1.5647357399924564e-23], [8.06792108027138e-25, -7.985171050427893e-25, 3.129471361655777e-24], [-6.9153607850788785e-25, -3.9925855252139466e-25, -1.5647357399924564e-23], [0.0, 0.0, 0.0], [-1.8440962750927764e-24, 1.3621714086039395e-39, 1.5647357399924564e-23], [-2.3051203438659705e-25, -3.9925855252139466e-25, -4.1324291712938855e-42]]" position="_JSON [[-2.5080501033233653e-08, 2.896043822692858, 7.093685281020082], [2.5080474833043005, 1.4480219185865388, 9.931159370728338], [-2.5080474657622972e-08, 1.4480219321859813e-08, 12.768633460436618], [-2.508050100757188e-08, 2.896043822692858, 15.606107550144904], [2.5080474833043005, 1.4480219185865388, 1.4187371016036034], [-2.5080474683284765e-08, 1.448021924994916e-08, 4.256211191311848], [0.6455796961452753, 4.014220700192009, 7.093685281020082], [-1.291159467532388, 2.896043822692858, 7.093685281020082], [1.8624677620782601, 2.5661987960859354, 9.931159370728338], [1.8624677620783974, 0.32984504108713875, 9.931159370728338], [3.799206925756067, 1.448021918586539, 9.931159370728338], [0.6455796961453446, 1.777866945193464, 7.093685281020082], [0.6455796961453437, 1.118176891979617, 12.768633460436618], [3.7249355492372644, 1.4480219318885344e-08, 12.768633460436618], [-0.6455797463064972, 4.014220700192008, 15.606107550144904], [-0.6455797463064283, 1.7778669451934639, 15.606107550144904], [1.2911594173711658, 2.896043822692858, 15.606107550144904], [-1.8624678122394864, 3.2258888492997735, 12.768633460436618], [3.1536272045302094, 2.5661987960859363, 1.4187371016036034], [1.2168880408525133, 1.4480219185865388, 1.4187371016036034], [-0.6455797463064288, 1.1181768919796162, 4.256211191311848], [1.8624677620782606, 3.2258888492997735, 4.256211191311848], [1.2911594173713026, 1.4480219471695544e-08, 4.256211191311848], [3.1536272045302103, 0.3298450410871392, 1.4187371016036034], [-2.5080475116008636e-08, 1.4480218840349683e-08, 8.512422325874196], [2.5080474833043005, 1.448021918586539, 5.674948236165971], [2.5080474833043, 1.4480219185865386, 14.187370505290685], [-2.5080501020402742e-08, 2.896043822692858, 11.349896415582439], [-2.508050149161931e-08, 2.896043822692858, 2.8374741464577253], [-2.508047469611557e-08, 1.4480219436771206e-08, 5.67494825171016e-08]]" formula=CCaO3 symbol="_JSON [\"C\", \"C\", \"C\", \"C\", \"C\", \"C\", \"O\", \"O\", \"O\", \"O\", \"O\", \"O\", \"O\", \"O\", \"O\", \"O\", \"O\", \"O\", \"O\", \"O\", \"O\", \"O\", \"O\", \"O\", \"Ca\", \"Ca\", \"Ca\", \"Ca\", \"Ca\", \"Ca\"]" stress="4.344516923993069e-07 -1.2732780465763993e-22 -7.297363483545487e-23 -1.2732780465763993e-22 4.344516923993069e-07 -2.449756422977194e-22 -7.297363483545487e-23 -2.449756422977194e-22 -9.196751307172235e-07" stress_voigt="4.344516923993069e-07 4.344516923993069e-07 -9.196751307172235e-07 -2.449756422977194e-22 -7.297363483545487e-23 -1.2732780465763993e-22" volume=370.97555693485646 a=5.016095016769526 b=5.016095016769526 c=17.02484453824944 alpha=90.0 beta=90.0 gamma=119.99999999999999 pbc="T T T"
C       -0.00000003       2.89604336       7.09368866
C        2.50804708       1.44802169       9.93116410
C       -0.00000003       0.00000001      12.76863954
C       -0.00000003       2.89604336      15.60611498
C        2.50804708       1.44802169       1.41873778
C       -0.00000003       0.00000001       4.25621322
O        0.64557972       4.01422028       7.09368866
O       -1.29115952       2.89604336       7.09368866
O        1.86246734       2.56619861       9.93116410
O        1.86246734       0.32984476       9.93116410
O        3.79920658       1.44802169       9.93116410
O        0.64557972       1.77786644       7.09368866
O        0.64557972       1.11817694      12.76863954
O        3.72493470       0.00000001      12.76863954
O       -0.64557977       4.01422028      15.60611498
O       -0.64557977       1.77786644      15.60611498
O        1.29115947       2.89604336      15.60611498
O       -1.86246739       3.22588811      12.76863954
O        3.15362683       2.56619861       1.41873778
O        1.21688759       1.44802169       1.41873778
O       -0.64557977       1.11817694       4.25621322
O        1.86246734       3.22588811       4.25621322
O        1.29115947       0.00000001       4.25621322
O        3.15362683       0.32984476       1.41873778
Ca      -0.00000003       0.00000001       8.51242638
Ca       2.50804708       1.44802169       5.67495094
Ca       2.50804708       1.44802169      14.18737726
Ca      -0.00000003       2.89604336      11.34990182
Ca      -0.00000003       2.89604336       2.83747550
Ca      -0.00000003       0.00000001       0.00000006
