C  O  Ca
 1.0000000000000000
    10.4330733680308416    0.0000000000000000    0.0000000000000000
    -5.2165366840154208    9.0353065762615810    0.0000000000000000
    -0.0000000000000004    0.0000000000000002   17.6586497369976314
 C   O   Ca 
  24  72  24
Cartesian
  0.0050866948645249  3.0117688738127022  7.3663803859704808
  5.2165366579326919  3.0117688738127022  7.3577707826111647
 -2.6082683680904393  7.5294221619434927  7.3577707826111647
  2.6082683159249802  7.5294221619434927  7.3577707826111647
  2.6082683159249669  1.5058844444357731 10.3008790721107708
  7.8248049999403868  1.5058844444357731 10.3008790721107708
 -0.0000000260827432  6.0235377325665640 10.3008790721107708
  5.2165366579326777  6.0235377325665640 10.3008790721107708
 10.4330733419481216  0.0000000150588426 13.2439873616103725
  5.2165366579327026  0.0000000150588426 13.2439873616103725
  7.8248049999404117  4.5176533031896327 13.2439873616103725
  2.6082683159249909  4.5176533031896327 13.2439873616103725
 -0.0000000260827284  3.0117688738127022 16.1870956511099813
  5.2165366579326919  3.0117688738127022 16.1870956511099813
 -2.6082683680904393  7.5294221619434927 16.1870956511099813
  2.6082683159249807  7.5294221619434927 16.1870956511099813
  2.6082683159249678  1.5058844444357726  1.4715542036119538
  7.8248049999403868  1.5058844444357726  1.4715542036119538
 -0.0000000260827430  6.0235377325665640  1.4715542036119538
  5.2165366579326777  6.0235377325665640  1.4715542036119538
 10.4330733419481216  0.0000000150588426  4.4146624931115586
  5.2165366579327026  0.0000000150588426  4.4146624931115586
  7.8248049999404099  4.5176533031896327  4.4146624931115586
  2.6082683159249922  4.5176533031896327  4.4146624931115586
  0.6499627044656737  4.1375373461487479  7.3577707826111647
  5.8664993884810945  4.1375373461487479  7.3577707826111647
 -1.9583056375420369  8.6551906342795384  7.3577707826111647
  3.2582310464733841  8.6551906342795384  7.3577707826111647
 -1.2999254871795389  3.0117688738127022  7.3577707826111647
  3.9166111968358819  3.0117688738127022  7.3577707826111647
 -3.9081938291872493  7.5294221619434927  7.3577707826111647
  1.3083428548281715  7.5294221619434927  7.3577707826111647
  1.9583055853765574  2.6316529167718188 10.3008790721107708
  7.1748422693919789  2.6316529167718188 10.3008790721107708
 -0.6499627566311529  7.1493062049026088 10.3008790721107708
  4.5665739273842663  7.1493062049026088 10.3008790721107708
  1.9583055853765705  0.3801159720997256 10.3008790721107708
  7.1748422693919913  0.3801159720997256 10.3008790721107708
 -0.6499627566311402  4.8977692602305165 10.3008790721107708
  4.5665739273842796  4.8977692602305165 10.3008790721107708
  3.9081937770217894  1.5058844444357729 10.3008790721107708
  9.1247304610372097  1.5058844444357729 10.3008790721107708
  1.2999254350140788  6.0235377325665640 10.3008790721107708
  6.5164621190294989  6.0235377325665640 10.3008790721107708
  0.6499627044656795  1.8860004014766558  7.3577707826111647
  5.8664993884810999  1.8860004014766558  7.3577707826111647
 -1.9583056375420309  6.4036536896074461  7.3577707826111647
  3.2582310464733908  6.4036536896074461  7.3577707826111647
  0.6499627044656805  1.1257684873948897 13.2439873616103725
  5.8664993884811016  1.1257684873948897 13.2439873616103725
 -1.9583056375420305  5.6434217755256801 13.2439873616103725
  3.2582310464733895  5.6434217755256801 13.2439873616103725
  3.9166111968358583  0.0000000150588426 13.2439873616103725
  9.1331478808512792  0.0000000150588426 13.2439873616103725
  1.3083428548281479  4.5176533031896327 13.2439873616103725
  6.5248795388435674  4.5176533031896327 13.2439873616103725
 -0.6499627566311352  4.1375373461487488 16.1870956511099813
  4.5665739273842849  4.1375373461487488 16.1870956511099813
 -3.2582310986388467  8.6551906342795419 16.1870956511099813
  1.9583055853765730  8.6551906342795419 16.1870956511099813
 -0.6499627566311289  1.8860004014766558 16.1870956511099813
  4.5665739273842920  1.8860004014766558 16.1870956511099813
 -3.2582310986388392  6.4036536896074452 16.1870956511099813
  1.9583055853765821  6.4036536896074452 16.1870956511099813
  1.2999254350140792  3.0117688738127022 16.1870956511099813
  6.5164621190295016  3.0117688738127022 16.1870956511099813
 -1.3083429069936312  7.5294221619434927 16.1870956511099813
  3.9081937770217885  7.5294221619434927 16.1870956511099813
  8.4747677304888214  3.3918848308535869 13.2439873616103725
  3.2582310464733997  3.3918848308535869 13.2439873616103725
  5.8664993884811105  7.9095381189843792 13.2439873616103725
  0.6499627044656896  7.9095381189843792 13.2439873616103725
  3.2582310464733797  2.6316529167718188  1.4715542036119538
  8.4747677304888001  2.6316529167718188  1.4715542036119538
  0.6499627044656694  7.1493062049026088  1.4715542036119538
  5.8664993884810892  7.1493062049026088  1.4715542036119538
  1.3083428548281599  1.5058844444357726  1.4715542036119538
  6.5248795388435799  1.5058844444357726  1.4715542036119538
 -1.2999254871795509  6.0235377325665640  1.4715542036119538
  3.9166111968358699  6.0235377325665640  1.4715542036119538
  9.7831106113997137  1.1257684873948901  4.4146624931115586
  4.5665739273842902  1.1257684873948901  4.4146624931115586
  7.1748422693920029  5.6434217755256801  4.4146624931115586
  1.9583055853765803  5.6434217755256801  4.4146624931115586
  1.9583055853765587  3.3918848308535869  4.4146624931115586
  7.1748422693919798  3.3918848308535869  4.4146624931115586
 -0.6499627566311527  7.9095381189843792  4.4146624931115586
  4.5665739273842680  7.9095381189843792  4.4146624931115586
  1.2999254350140916  0.0000000150588424  4.4146624931115586
  6.5164621190295113  0.0000000150588424  4.4146624931115586
 -1.3083429069936194  4.5176533031896327  4.4146624931115586
  3.9081937770218009  4.5176533031896327  4.4146624931115586
  3.2582310464733801  0.3801159720997260  1.4715542036119538
  8.4747677304887983  0.3801159720997260  1.4715542036119538
  0.6499627044656692  4.8977692602305165  1.4715542036119538
  5.8664993884810901  4.8977692602305165  1.4715542036119538
 10.4330733419481234  0.0000000150588422  8.8293249273609682
  5.2165366579327026  0.0000000150588422  8.8293249273609682
  7.8248049999404099  4.5176533031896327  8.8293249273609682
  2.6082683159249922  4.5176533031896327  8.8293249273609682
  2.6082683159249691  1.5058844444357726  5.8862166378613621
  7.8248049999403904  1.5058844444357726  5.8862166378613621
 -0.0000000260827418  6.0235377325665640  5.8862166378613621
  5.2165366579326795  6.0235377325665640  5.8862166378613621
  2.6082683159249673  1.5058844444357726 14.7155415063601787
  7.8248049999403868  1.5058844444357726 14.7155415063601787
 -0.0000000260827438  6.0235377325665640 14.7155415063601787
  5.2165366579326777  6.0235377325665640 14.7155415063601787
 -0.0000000260827283  3.0117688738127022 11.7724332168605734
  5.2165366579326919  3.0117688738127022 11.7724332168605734
 -2.6082683680904393  7.5294221619434927 11.7724332168605734
  2.6082683159249807  7.5294221619434927 11.7724332168605734
 -0.0000000260827290  3.0117688738127022  2.9431083483617577
  5.2165366579326919  3.0117688738127022  2.9431083483617577
 -2.6082683680904393  7.5294221619434927  2.9431083483617577
  2.6082683159249802  7.5294221619434927  2.9431083483617577
 10.4330733419481216  0.0000000150588428  0.0000000588621516
  5.2165366579327026  0.0000000150588428  0.0000000588621516
  7.8248049999404099  4.5176533031896327  0.0000000588621516
  2.6082683159249922  4.5176533031896327  0.0000000588621516
