C  O  Ca
 1.0000000000000000
     9.5302112496435587    0.0000000000000000    0.0000000000000000
    -4.7651056248217794    8.2534050456235644    0.0000000000000000
     0.0000000000000009    0.0000000000000005   16.1304973559112987
 C   O   Ca 
  24  72  24
Cartesian
  0.0050866971216937  2.7511350289635272  6.7296502220906707
  4.7651056009962192  2.7511350289635272  6.7210406187313536
 -2.3825528362364499  6.8778375517753085  6.7210406187313536
  2.3825527885853304  6.8778375517753085  6.7210406187313536
  2.3825527885853313  1.3755675213596001  9.4094568447165692
  7.1476584134071119  1.3755675213596001  9.4094568447165692
 -0.0000000238255586  5.5022700441713814  9.4094568447165692
  4.7651056009962209  5.5022700441713814  9.4094568447165692
  9.5302112258179985  0.0000000137556730 12.0978730707017874
  4.7651056009962200  0.0000000137556730 12.0978730707017874
  7.1476584134071093  4.1267025365674543 12.0978730707017874
  2.3825527885853299  4.1267025365674543 12.0978730707017874
 -0.0000000238255592  2.7511350289635272 14.7862892966870021
  4.7651056009962218  2.7511350289635272 14.7862892966870021
 -2.3825528362364490  6.8778375517753094 14.7862892966870021
  2.3825527885853308  6.8778375517753094 14.7862892966870021
  2.3825527885853308  1.3755675213596001  1.3442081667609207
  7.1476584134071093  1.3755675213596001  1.3442081667609207
 -0.0000000238255596  5.5022700441713823  1.3442081667609207
  4.7651056009962200  5.5022700441713823  1.3442081667609207
  9.5302112258179985  0.0000000137556730  4.0326243927461363
  4.7651056009962183  0.0000000137556730  4.0326243927461363
  7.1476584134071084  4.1267025365674543  4.0326243927461363
  2.3825527885853304  4.1267025365674543  4.0326243927461363
  0.6375772871958200  3.8554513254057023  6.7210406187313536
  5.4026829120176005  3.8554513254057023  6.7210406187313536
 -1.7449755252150700  7.9821538482174841  6.7210406187313536
  3.0201300996067095  7.9821538482174841  6.7210406187313536
 -1.2751546458683198  2.7511350289635277  6.7210406187313536
  3.4899509789534604  2.7511350289635277  6.7210406187313536
 -3.6577074582792095  6.8778375517753094  6.7210406187313536
  1.1073981665425701  6.8778375517753094  6.7210406187313536
  1.7449754775639577  2.4798838178017748  9.4094568447165692
  6.5100811023857377  2.4798838178017748  9.4094568447165692
 -0.6375773348469322  6.6065863406135561  9.4094568447165692
  4.1275282899748484  6.6065863406135561  9.4094568447165692
  1.7449754775639570  0.2712512249174249  9.4094568447165692
  6.5100811023857359  0.2712512249174249  9.4094568447165692
 -0.6375773348469322  4.3979537477292068  9.4094568447165692
  4.1275282899748476  4.3979537477292068  9.4094568447165692
  3.6577074106281025  1.3755675213595999  9.4094568447165692
  8.4228130354498809  1.3755675213595999  9.4094568447165692
  1.2751545982172130  5.5022700441713814  9.4094568447165692
  6.0402602230389917  5.5022700441713814  9.4094568447165692
  0.6375772871958203  1.6468187325213524  6.7210406187313536
  5.4026829120175996  1.6468187325213524  6.7210406187313536
 -1.7449755252150694  5.7735212553331348  6.7210406187313536
  3.0201300996067113  5.7735212553331348  6.7210406187313536
  0.6375772871958203  1.1043163101978488 12.0978730707017874
  5.4026829120175996  1.1043163101978488 12.0978730707017874
 -1.7449755252150700  5.2310188330096308 12.0978730707017874
  3.0201300996067100  5.2310188330096308 12.0978730707017874
  3.4899509789534755  0.0000000137556735 12.0978730707017874
  8.2550566037752535  0.0000000137556735 12.0978730707017874
  1.1073981665425838  4.1267025365674552 12.0978730707017874
  5.8725037913643643  4.1267025365674552 12.0978730707017874
 -0.6375773348469393  3.8554513254057023 14.7862892966870021
  4.1275282899748413  3.8554513254057023 14.7862892966870021
 -3.0201301472578286  7.9821538482174841 14.7862892966870021
  1.7449754775639521  7.9821538482174841 14.7862892966870021
 -0.6375773348469398  1.6468187325213526 14.7862892966870021
  4.1275282899748396  1.6468187325213526 14.7862892966870021
 -3.0201301472578286  5.7735212553331356 14.7862892966870021
  1.7449754775639508  5.7735212553331356 14.7862892966870021
  1.2751545982172017  2.7511350289635268 14.7862892966870021
  6.0402602230389828  2.7511350289635268 14.7862892966870021
 -1.1073982141936882  6.8778375517753094 14.7862892966870021
  3.6577074106280918  6.8778375517753094 14.7862892966870021
  7.7852357244284827  3.0223862401252801 12.0978730707017874
  3.0201300996067024  3.0223862401252801 12.0978730707017874
  5.4026829120175925  7.1490887629370627 12.0978730707017874
  0.6375772871958121  7.1490887629370627 12.0978730707017874
  3.0201300996067229  2.4798838178017748  1.3442081667609207
  7.7852357244285040  2.4798838178017748  1.3442081667609207
  0.6375772871958331  6.6065863406135570  1.3442081667609207
  5.4026829120176139  6.6065863406135570  1.3442081667609207
  1.1073981665425703  1.3755675213596006  1.3442081667609207
  5.8725037913643492  1.3755675213596006  1.3442081667609207
 -1.2751546458683198  5.5022700441713823  1.3442081667609207
  3.4899509789534595  5.5022700441713823  1.3442081667609207
  8.8926339147966189  1.1043163101978488  4.0326243927461363
  4.1275282899748387  1.1043163101978488  4.0326243927461363
  6.5100811023857315  5.2310188330096308  4.0326243927461363
  1.7449754775639494  5.2310188330096308  4.0326243927461363
  1.7449754775639570  3.0223862401252806  4.0326243927461363
  6.5100811023857359  3.0223862401252806  4.0326243927461363
 -0.6375773348469325  7.1490887629370627  4.0326243927461363
  4.1275282899748467  7.1490887629370627  4.0326243927461363
  1.2751545982172015  0.0000000137556728  4.0326243927461363
  6.0402602230389819  0.0000000137556728  4.0326243927461363
 -1.1073982141936882  4.1267025365674543  4.0326243927461363
  3.6577074106280913  4.1267025365674543  4.0326243927461363
  3.0201300996067229  0.2712512249174249  1.3442081667609207
  7.7852357244285022  0.2712512249174249  1.3442081667609207
  0.6375772871958333  4.3979537477292077  1.3442081667609207
  5.4026829120176139  4.3979537477292077  1.3442081667609207
  9.5302112258179985  0.0000000137556730  8.0652487317239618
  4.7651056009962209  0.0000000137556730  8.0652487317239618
  7.1476584134071093  4.1267025365674543  8.0652487317239618
  2.3825527885853295  4.1267025365674543  8.0652487317239618
  2.3825527885853313  1.3755675213596004  5.3768325057387454
  7.1476584134071093  1.3755675213596004  5.3768325057387454
 -0.0000000238255598  5.5022700441713823  5.3768325057387454
  4.7651056009962200  5.5022700441713823  5.3768325057387454
  2.3825527885853299  1.3755675213596004 13.4420811836943983
  7.1476584134071111  1.3755675213596004 13.4420811836943983
 -0.0000000238255601  5.5022700441713814 13.4420811836943983
  4.7651056009962200  5.5022700441713814 13.4420811836943983
 -0.0000000238255592  2.7511350289635277 10.7536649577091783
  4.7651056009962200  2.7511350289635277 10.7536649577091783
 -2.3825528362364494  6.8778375517753085 10.7536649577091783
  2.3825527885853295  6.8778375517753085 10.7536649577091783
 -0.0000000238255601  2.7511350289635277  2.6884162797535298
  4.7651056009962200  2.7511350289635277  2.6884162797535298
 -2.3825528362364503  6.8778375517753094  2.6884162797535298
  2.3825527885853295  6.8778375517753094  2.6884162797535298
  9.5302112258180021  0.0000000137556733  0.0000000537683125
  4.7651056009962200  0.0000000137556733  0.0000000537683125
  7.1476584134071102  4.1267025365674552  0.0000000537683125
  2.3825527885853304  4.1267025365674552  0.0000000537683125
