C  O  Ca
 1.0000000000000000
    10.3331540856650737    0.0000000000000000    0.0000000000000000
    -5.1665770428325359    8.9487739394049157    0.0000000000000000
     0.0000000000000001    0.0000000000000002   17.5355982243209283
 C   O   Ca 
  24  72  24
Cartesian
 -0.0000000258329232  2.9829246613829499  7.3064993185857094
  5.1665770169996135  2.9829246613829499  7.3064993185857094
 -2.5832885472491913  7.4573116310854077  7.3064993185857094
  2.5832884955833468  7.4573116310854077  7.3064993185857094
  2.5832884955833353  1.4914623381487977 10.2290990226391969
  7.7498655384158752  1.4914623381487977 10.2290990226391969
 -0.0000000258329326  5.9658493078512551 10.2290990226391969
  5.1665770169996046  5.9658493078512551 10.2290990226391969
 10.3331540598321414  0.0000000149146442 13.1516987266926861
  5.1665770169996037  0.0000000149146442 13.1516987266926861
  7.7498655384158726  4.4743869846171025 13.1516987266926861
  2.5832884955833371  4.4743869846171025 13.1516987266926861
 -0.0000000258329236  2.9829246613829499 16.0742984307461718
  5.1665770169996135  2.9829246613829499 16.0742984307461718
 -2.5832885472491922  7.4573116310854077 16.0742984307461718
  2.5832884955833468  7.4573116310854077 16.0742984307461718
  2.5832884955833357  1.4914623381487970  1.4612999104787336
  7.7498655384158752  1.4914623381487970  1.4612999104787336
 -0.0000000258329327  5.9658493078512551  1.4612999104787336
  5.1665770169996046  5.9658493078512551  1.4612999104787336
 10.3331540598321414  0.0000000149146442  4.3838996145322211
  5.1665770169996037  0.0000000149146442  4.3838996145322211
  7.7498655384158726  4.4743869846171025  4.3838996145322211
  2.5832884955833371  4.4743869846171025  4.3838996145322211
  0.6590481564655128  4.1071090896840676  7.3064993185857094
  5.8156251992980481  4.1071090896840676  7.3064993185857094
 -1.9342403649507558  8.5814960593865255  7.3064993185857094
  3.2323366778817801  8.5814960593865255  7.3064993185857094
 -1.2980963904298035  2.9829246613829499  7.3064993185857094
  3.8684806524027340  2.9829246613829499  7.3064993185857094
 -3.8813849118460713  7.4573116310854077  7.3064993185857094
  1.2851921309864669  7.4573116310854077  7.3064993185857094
  1.9342403132848989  2.6156467664499123 10.2290990226391969
  7.1008173561174353  2.6156467664499123 10.2290990226391969
 -0.6490482081313685  7.0900337361523702 10.2290990226391969
  4.5175288347011673  7.0900337361523702 10.2290990226391969
  1.9342403132848993  0.3672779098476806 10.2290990226391969
  7.1008173561174353  0.3672779098476806 10.2290990226391969
 -0.6490482081313689  4.8416648795501400 10.2290990226391969
  4.5175288347011673  4.8416648795501400 10.2290990226391969
  3.8813848601802081  1.4914623381487979 10.2290990226391969
  9.0479619030127463  1.4914623381487979 10.2290990226391969
  1.2980963387639401  5.9658493078512551 10.2290990226391969
  6.4646733815964756  5.9658493078512551 10.2290990226391969
  0.6490481564655126  1.8587402330818341  7.3064993185857094
  5.8156251992980490  1.8587402330818341  7.3064993185857094
 -1.9342403649507554  6.3331272027842918  7.3064993185857094
  3.2323366778817815  6.3331272027842918  7.3064993185857094
  0.6490481564655020  1.1241844432157604 13.1516987266926861
  5.8156251992980392  1.1241844432157604 13.1516987266926861
 -1.9342403649507662  5.5985714129182176 13.1516987266926861
  3.2323366778817704  5.5985714129182176 13.1516987266926861
  3.8684806524027322  0.0000000149146442 13.1516987266926861
  9.0350576952352686  0.0000000149146442 13.1516987266926861
  1.2851921309864640  4.4743869846171025 13.1516987266926861
  6.4517691738189997  4.4743869846171025 13.1516987266926861
 -0.6490482081313587  4.1071090896840667 16.0742984307461718
  4.5175288347011797  4.1071090896840667 16.0742984307461718
 -3.2323367295476264  8.5814960593865237 16.0742984307461718
  1.9342403132849111  8.5814960593865237 16.0742984307461718
 -0.6490482081313578  1.8587402330818341 16.0742984307461718
  4.5175288347011788  1.8587402330818341 16.0742984307461718
 -3.2323367295476264  6.3331272027842918 16.0742984307461718
  1.9342403132849104  6.3331272027842918 16.0742984307461718
  1.2980963387639379  2.9829246613829499 16.0742984307461718
  6.4646733815964748  2.9829246613829499 16.0742984307461718
 -1.2851921826523300  7.4573116310854077 16.0742984307461718
  3.8813848601802072  7.4573116310854077 16.0742984307461718
  8.3989137207143276  3.3502025563159874 13.1516987266926861
  3.2323366778817921  3.3502025563159874 13.1516987266926861
  5.8156251992980623  7.8245895260184453 13.1516987266926861
  0.6490481564655245  7.8245895260184453 13.1516987266926861
  3.2323366778817699  2.6156467664499132  1.4612999104787336
  8.3989137207143081  2.6156467664499132  1.4612999104787336
  0.6490481564655018  7.0900337361523711  1.4612999104787336
  5.8156251992980392  7.0900337361523711  1.4612999104787336
  1.2851921309864653  1.4914623381487970  1.4612999104787336
  6.4517691738190042  1.4914623381487970  1.4612999104787336
 -1.2980963904298028  5.9658493078512551  1.4612999104787336
  3.8684806524027358  5.9658493078512551  1.4612999104787336
  9.6841058775337050  1.1241844432157597  4.3838996145322211
  4.5175288347011673  1.1241844432157597  4.3838996145322211
  7.1008173561174361  5.5985714129182176  4.3838996145322211
  1.9342403132848995  5.5985714129182176  4.3838996145322211
  1.9342403132849195  3.3502025563159874  4.3838996145322211
  7.1008173561174575  3.3502025563159874  4.3838996145322211
 -0.6490482081313484  7.8245895260184453  4.3838996145322211
  4.5175288347011913  7.8245895260184453  4.3838996145322211
  1.2980963387639375  0.0000000149146444  4.3838996145322211
  6.4646733815964739  0.0000000149146444  4.3838996145322211
 -1.2851921826523300  4.4743869846171025  4.3838996145322211
  3.8813848601802063  4.4743869846171025  4.3838996145322211
  3.2323366778817708  0.3672779098476807  1.4612999104787336
  8.3989137207143063  0.3672779098476807  1.4612999104787336
  0.6490481564655021  4.8416648795501400  1.4612999104787336
  5.8156251992980401  4.8416648795501400  1.4612999104787336
 10.3331540598321414  0.0000000149146437  8.7677991706124541
  5.1665770169996046  0.0000000149146437  8.7677991706124541
  7.7498655384158708  4.4743869846171025  8.7677991706124541
  2.5832884955833362  4.4743869846171025  8.7677991706124541
  2.5832884955833353  1.4914623381487977  5.8451994665589657
  7.7498655384158743  1.4914623381487977  5.8451994665589657
 -0.0000000258329326  5.9658493078512551  5.8451994665589657
  5.1665770169996046  5.9658493078512551  5.8451994665589657
  2.5832884955833357  1.4914623381487968 14.6129985787194308
  7.7498655384158734  1.4914623381487968 14.6129985787194308
 -0.0000000258329325  5.9658493078512542 14.6129985787194308
  5.1665770169996055  5.9658493078512542 14.6129985787194308
 -0.0000000258329236  2.9829246613829499 11.6903988746659415
  5.1665770169996135  2.9829246613829499 11.6903988746659415
 -2.5832885472491922  7.4573116310854077 11.6903988746659415
  2.5832884955833468  7.4573116310854077 11.6903988746659415
 -0.0000000258329234  2.9829246613829499  2.9225997625054783
  5.1665770169996135  2.9829246613829499  2.9225997625054783
 -2.5832885472491918  7.4573116310854077  2.9225997625054783
  2.5832884955833468  7.4573116310854077  2.9225997625054783
 10.3331540598321414  0.0000000149146444  0.0000000584519899
  5.1665770169996037  0.0000000149146444  0.0000000584519899
  7.7498655384158726  4.4743869846171025  0.0000000584519899
  2.5832884955833371  4.4743869846171025  0.0000000584519899
