C  O  Ca
 1.0000000000000000
     9.9318665483576893    0.0000000000000000    0.0000000000000000
    -4.9659332741788447    8.6012487378746254    0.0000000000000000
    -0.0000000000000003    0.0000000000000006   16.8546041185220581
 C   O   Ca 
  24  72  24
Cartesian
 -0.0000000248297156  2.8670829269603169  7.0227517722328656
  4.9659332493491295  2.8670829269603169  7.0227517722328656
 -2.4829666619191380  7.1677072958976300  7.0227517722328656
  2.4829666122597067  7.1677072958976300  7.0227517722328656
  2.4829666122597103  1.4335414706478764  9.8318524586532057
  7.4488998864385536  1.4335414706478764  9.8318524586532057
 -0.0000000248297134  5.7341658395851889  9.8318524586532057
  4.9659332493491295  5.7341658395851889  9.8318524586532057
  9.9318665235279777  0.0000000143354346 12.6409531450735528
  4.9659332493491322  0.0000000143354346 12.6409531450735528
  7.4488998864385554  4.3006243832727487 12.6409531450735528
  2.4829666122597094  4.3006243832727487 12.6409531450735528
 -0.0000000248297158  2.8670829269603169 15.4500538314938893
  4.9659332493491295  2.8670829269603169 15.4500538314938893
 -2.4829666619191384  7.1677072958976309 15.4500538314938893
  2.4829666122597063  7.1677072958976309 15.4500538314938893
  2.4829666122597098  1.4335414706478760  1.4045503993921828
  7.4488998864385518  1.4335414706478760  1.4045503993921828
 -0.0000000248297124  5.7341658395851889  1.4045503993921828
  4.9659332493491295  5.7341658395851889  1.4045503993921828
  9.9318665235279777  0.0000000143354346  4.2136510858125247
  4.9659332493491322  0.0000000143354346  4.2136510858125247
  7.4488998864385554  4.3006243832727478  4.2136510858125247
  2.4829666122597098  4.3006243832727478  4.2136510858125247
  0.6541953936000544  3.9828621216837647  7.0227517722328656
  5.6101286677788993  3.9828621216837647  7.0227517722328656
 -1.8387712434893688  8.2834864906210761  7.0227517722328656
  3.1271620306894761  8.2834864906210761  7.0227517722328656
 -1.2883908616892594  2.8670829269603169  7.0227517722328656
  3.6775424124895855  2.8670829269603169  7.0227517722328656
 -3.7713574987786820  7.1677072958976300  7.0227517722328656
  1.1945757754001616  7.1677072958976300  7.0227517722328656
  1.8387711938299400  2.5493206653713334  9.8318524586532057
  6.8047044680087838  2.5493206653713334  9.8318524586532057
 -0.6441954432594832  6.8499450343086457  9.8318524586532057
  4.3217378309193615  6.8499450343086457  9.8318524586532057
  1.8387711938299443  0.3177622759244187  9.8318524586532057
  6.8047044680087891  0.3177622759244187  9.8318524586532057
 -0.6441954432594793  4.6183866448617312  9.8318524586532057
  4.3217378309193668  4.6183866448617312  9.8318524586532057
  3.7713574491192565  1.4335414706478766  9.8318524586532057
  8.7372907232981021  1.4335414706478766  9.8318524586532057
  1.2883908120298342  5.7341658395851889  9.8318524586532057
  6.2543240862086780  5.7341658395851889  9.8318524586532057
  0.6441953936000572  1.7513037322368550  7.0227517722328656
  5.6101286677789011  1.7513037322368550  7.0227517722328656
 -1.8387712434893659  6.0519281011741679  7.0227517722328656
  3.1271620306894787  6.0519281011741679  7.0227517722328656
  0.6441953936000565  1.1157792090588894 12.6409531450735528
  5.6101286677789002  1.1157792090588894 12.6409531450735528
 -1.8387712434893668  5.4164035779962036 12.6409531450735528
  3.1271620306894770  5.4164035779962036 12.6409531450735528
  3.6775424124896001  0.0000000143354346 12.6409531450735528
  8.6434756866684452  0.0000000143354346 12.6409531450735528
  1.1945757754001782  4.3006243832727487 12.6409531450735528
  6.1605090495790229  4.3006243832727487 12.6409531450735528
 -0.6441954432594882  3.9828621216837630 15.4500538314938893
  4.3217378309193561  3.9828621216837630 15.4500538314938893
 -3.1271620803489117  8.2834864906210761 15.4500538314938893
  1.8387711938299331  8.2834864906210761 15.4500538314938893
 -0.6441954432594863  1.7513037322368550 15.4500538314938893
  4.3217378309193588  1.7513037322368550 15.4500538314938893
 -3.1271620803489095  6.0519281011741688 15.4500538314938893
  1.8387711938299363  6.0519281011741688 15.4500538314938893
  1.2883908120298273  2.8670829269603169 15.4500538314938893
  6.2543240862086718  2.8670829269603169 15.4500538314938893
 -1.1945758250595950  7.1677072958976309 15.4500538314938893
  3.7713574491192476  7.1677072958976309 15.4500538314938893
  8.0930953048683172  3.1848451885492848 12.6409531450735528
  3.1271620306894716  3.1848451885492848 12.6409531450735528
  5.6101286677788940  7.4854695574865984 12.6409531450735528
  0.6441953936000491  7.4854695574865984 12.6409531450735528
  3.1271620306894823  2.5493206653713347  1.4045503993921828
  8.0930953048683261  2.5493206653713347  1.4045503993921828
  0.6441953936000586  6.8499450343086474  1.4045503993921828
  5.6101286677789037  6.8499450343086474  1.4045503993921828
  1.1945757754001705  1.4335414706478760  1.4045503993921828
  6.1605090495790140  1.4335414706478760  1.4045503993921828
 -1.2883908616892519  5.7341658395851889  1.4045503993921828
  3.6775424124895917  5.7341658395851889  1.4045503993921828
  9.2876711050981999  1.1157792090588887  4.2136510858125247
  4.3217378309193588  1.1157792090588887  4.2136510858125247
  6.8047044680087785  5.4164035779962010  4.2136510858125247
  1.8387711938299354  5.4164035779962010  4.2136510858125247
  1.8387711938299400  3.1848451885492848  4.2136510858125247
  6.8047044680087856  3.1848451885492848  4.2136510858125247
 -0.6441954432594829  7.4854695574865975  4.2136510858125247
  4.3217378309193633  7.4854695574865975  4.2136510858125247
  1.2883908120298313  0.0000000143354348  4.2136510858125247
  6.2543240862086762  0.0000000143354348  4.2136510858125247
 -1.1945758250595915  4.3006243832727478  4.2136510858125247
  3.7713574491192539  4.3006243832727478  4.2136510858125247
  3.1271620306894827  0.3177622759244192  1.4045503993921828
  8.0930953048683278  0.3177622759244192  1.4045503993921828
  0.6441953936000605  4.6183866448617312  1.4045503993921828
  5.6101286677789055  4.6183866448617312  1.4045503993921828
  9.9318665235279759  0.0000000143354342  8.4273021154430356
  4.9659332493491304  0.0000000143354342  8.4273021154430356
  7.4488998864385518  4.3006243832727469  8.4273021154430356
  2.4829666122597094  4.3006243832727469  8.4273021154430356
  2.4829666122597098  1.4335414706478762  5.6182014290226965
  7.4488998864385536  1.4335414706478762  5.6182014290226965
 -0.0000000248297124  5.7341658395851889  5.6182014290226965
  4.9659332493491295  5.7341658395851889  5.6182014290226965
  2.4829666122597085  1.4335414706478757 14.0455034882837246
  7.4488998864385545  1.4335414706478757 14.0455034882837246
 -0.0000000248297129  5.7341658395851889 14.0455034882837246
  4.9659332493491322  5.7341658395851889 14.0455034882837246
 -0.0000000248297157  2.8670829269603169 11.2364028018633810
  4.9659332493491295  2.8670829269603169 11.2364028018633810
 -2.4829666619191380  7.1677072958976300 11.2364028018633810
  2.4829666122597067  7.1677072958976300 11.2364028018633810
 -0.0000000248297167  2.8670829269603169  2.8091007426023547
  4.9659332493491295  2.8670829269603169  2.8091007426023547
 -2.4829666619191388  7.1677072958976300  2.8091007426023547
  2.4829666122597067  7.1677072958976300  2.8091007426023547
  9.9318665235279777  0.0000000143354348  0.0000000561820119
  4.9659332493491322  0.0000000143354348  0.0000000561820119
  7.4488998864385554  4.3006243832727478  0.0000000561820119
  2.4829666122597098  4.3006243832727478  0.0000000561820119
