C  O  Ca
 1.0000000000000000
    10.3327553548766975    0.0000000000000000    0.0000000000000000
    -5.1663776774383487    8.9484286284129126    0.0000000000000000
    -0.0000000000000004    0.0000000000000002   17.4888550279880377
 C   O   Ca 
  24  72  24
Cartesian
 -0.0000000258319234  2.9828095577183507  7.2870229866245193
  5.1663776516064264  2.9828095577183507  7.2870229866245193
 -2.5831888645510976  7.4570238719248065  7.2870229866245193
  2.5831888128872520  7.4570238719248065  7.2870229866245193
  2.5831888128872507  1.4914047863161979 10.2018321579558595
  7.7495664903256012  1.4914047863161979 10.2018321579558595
 -0.0000000258319228  5.9656191005226553 10.2018321579558595
  5.1663776516064264  5.9656191005226553 10.2018321579558595
 10.3327553290447725  0.0000000149140451 13.1166413292871979
  5.1663776516064264  0.0000000149140451 13.1166413292871979
  7.7495664903256003  4.4742143291205014 13.1166413292871979
  2.5831888128872516  4.4742143291205014 13.1166413292871979
 -0.0000000258319234  2.9828095577183507 16.0314505006185399
  5.1663776516064264  2.9828095577183507 16.0314505006185399
 -2.5831888645510976  7.4570238719248065 16.0314505006185399
  2.5831888128872516  7.4570238719248065 16.0314505006185399
  2.5831888128872520  1.4914047863161974  1.4574046439618407
  7.7495664903256012  1.4914047863161974  1.4574046439618407
 -0.0000000258319226  5.9656191005226553  1.4574046439618407
  5.1663776516064264  5.9656191005226553  1.4574046439618407
 10.3327553290447725  0.0000000149140451  4.3722138152931809
  5.1663776516064264  0.0000000149140451  4.3722138152931809
  7.7495664903256003  4.4742143291205014  4.3722138152931809
  2.5831888128872520  4.4742143291205014  4.3722138152931809
  0.6389712103165882  4.1068607113783528  7.2870229866245193
  5.8153488877549373  4.1068607113783528  7.2870229866245193
 -1.9342176284025860  8.5810750255848092  7.2870229866245193
  3.2321600490357629  8.5810750255848092  7.2870229866245193
 -1.2979424981289451  2.9828095577183511  7.2870229866245193
  3.8684351793094032  2.9828095577183511  7.2870229866245193
 -3.8811313368481186  7.4570238719248065  7.2870229866245193
  1.2852463405902290  7.4570238719248065  7.2870229866245193
  1.9342175767387411  2.6154559399761990 10.2018321579558595
  7.1005952541770903  2.6154559399761990 10.2018321579558595
 -0.6489712619804334  7.0896702541826553 10.2018321579558595
  4.5174064154579154  7.0896702541826553 10.2018321579558595
  1.9342175767387411  0.3673536326561964 10.2018321579558595
  7.1005952541770903  0.3673536326561964 10.2018321579558595
 -0.6489712619804333  4.8415679468626527 10.2018321579558595
  4.5174064154579163  4.8415679468626527 10.2018321579558595
  3.8811312851842739  1.4914047863161977 10.2018321579558595
  9.0475089626226257  1.4914047863161977 10.2018321579558595
  1.2979424464650990  5.9656191005226553 10.2018321579558595
  6.4643201239034482  5.9656191005226553 10.2018321579558595
  0.6489712103165877  1.8587584040583505  7.2870229866245193
  5.8153488877549373  1.8587584040583505  7.2870229866245193
 -1.9342176284025860  6.3329727182648066  7.2870229866245193
  3.2321600490357625  6.3329727182648066  7.2870229866245193
  0.6489712103165890  1.1240511685740446 13.1166413292871979
  5.8153488877549382  1.1240511685740446 13.1166413292871979
 -1.9342176284025852  5.5982654827805005 13.1166413292871979
  3.2321600490357634  5.5982654827805005 13.1166413292871979
  3.8684351793094054  0.0000000149140456 13.1166413292871979
  9.0348128567477524  0.0000000149140456 13.1166413292871979
  1.2852463405902315  4.4742143291205014 13.1166413292871979
  6.4516240180285802  4.4742143291205014 13.1166413292871979
 -0.6489712619804335  4.1068607113783528 16.0314505006185399
  4.5174064154579154  4.1068607113783528 16.0314505006185399
 -3.2321601006996081  8.5810750255848092 16.0314505006185399
  1.9342175767387406  8.5810750255848092 16.0314505006185399
 -0.6489712619804335  1.8587584040583498 16.0314505006185399
  4.5174064154579154  1.8587584040583498 16.0314505006185399
 -3.2321601006996086  6.3329727182648066 16.0314505006185399
  1.9342175767387404  6.3329727182648066 16.0314505006185399
  1.2979424464650988  2.9828095577183493 16.0314505006185399
  6.4643201239034500  2.9828095577183493 16.0314505006185399
 -1.2852463922540756  7.4570238719248056 16.0314505006185399
  3.8811312851842747  7.4570238719248056 16.0314505006185399
  8.3985377264741121  3.3501631754605015 13.1166413292871979
  3.2321600490357607  3.3501631754605015 13.1166413292871979
  5.8153488877549391  7.8243774896669569 13.1166413292871979
  0.6489712103165878  7.8243774896669569 13.1166413292871979
  3.2321600490357620  2.6154559399761990  1.4574046439618407
  8.3985377264741103  2.6154559399761990  1.4574046439618407
  0.6489712103165878  7.0896702541826553  1.4574046439618407
  5.8153488877549355  7.0896702541826553  1.4574046439618407
  1.2852463405902299  1.4914047863161979  1.4574046439618407
  6.4516240180285793  1.4914047863161979  1.4574046439618407
 -1.2979424981289445  5.9656191005226553  1.4574046439618407
  3.8684351793094045  5.9656191005226553  1.4574046439618407
  9.6837840928962624  1.1240511685740449  4.3722138152931809
  4.5174064154579163  1.1240511685740449  4.3722138152931809
  7.1005952541770885  5.5982654827805005  4.3722138152931809
  1.9342175767387411  5.5982654827805005  4.3722138152931809
  1.9342175767387408  3.3501631754605015  4.3722138152931809
  7.1005952541770894  3.3501631754605015  4.3722138152931809
 -0.6489712619804334  7.8243774896669569  4.3722138152931809
  4.5174064154579154  7.8243774896669569  4.3722138152931809
  1.2979424464651002  0.0000000149140449  4.3722138152931809
  6.4643201239034482  0.0000000149140449  4.3722138152931809
 -1.2852463922540744  4.4742143291205014  4.3722138152931809
  3.8811312851842739  4.4742143291205014  4.3722138152931809
  3.2321600490357612  0.3673536326561968  1.4574046439618407
  8.3985377264741103  0.3673536326561968  1.4574046439618407
  0.6489712103165870  4.8415679468626527  1.4574046439618407
  5.8153488877549364  4.8415679468626527  1.4574046439618407
 10.3327553290447725  0.0000000149140451  8.7444275722901885
  5.1663776516064264  0.0000000149140451  8.7444275722901885
  7.7495664903256003  4.4742143291205014  8.7444275722901885
  2.5831888128872520  4.4742143291205014  8.7444275722901885
  2.5831888128872520  1.4914047863161977  5.8296184009588501
  7.7495664903256012  1.4914047863161977  5.8296184009588501
 -0.0000000258319227  5.9656191005226553  5.8296184009588501
  5.1663776516064264  5.9656191005226553  5.8296184009588501
  2.5831888128872507  1.4914047863161977 14.5740459149528672
  7.7495664903256012  1.4914047863161977 14.5740459149528672
 -0.0000000258319233  5.9656191005226553 14.5740459149528672
  5.1663776516064264  5.9656191005226553 14.5740459149528672
 -0.0000000258319229  2.9828095577183511 11.6592367436215287
  5.1663776516064264  2.9828095577183511 11.6592367436215287
 -2.5831888645510972  7.4570238719248065 11.6592367436215287
  2.5831888128872516  7.4570238719248065 11.6592367436215287
 -0.0000000258319234  2.9828095577183511  2.9148092296275099
  5.1663776516064264  2.9828095577183511  2.9148092296275099
 -2.5831888645510968  7.4570238719248065  2.9148092296275099
  2.5831888128872520  7.4570238719248065  2.9148092296275099
 10.3327553290447725  0.0000000149140453  0.0000000582961714
  5.1663776516064264  0.0000000149140453  0.0000000582961714
  7.7495664903256003  4.4742143291205014  0.0000000582961714
  2.5831888128872520  4.4742143291205014  0.0000000582961714
