C  O  Ca
 1.0000000000000000
    10.4871504443065060    0.0000000000000000    0.0000000000000000
    -5.2435752221532530    9.0821386980786958    0.0000000000000000
    -0.0000000000000004    0.0000000000000006   17.7800894908421583
 C   O   Ca 
  24  72  24
Cartesian
  0.0050803475320188  3.0273795811631565  7.4169840307030377
  5.2435751959353434  3.0273795811631565  7.4083706804511893
 -2.6217876372945366  7.5684489302025044  7.4083706804511893
  2.6217875848587164  7.5684489302025044  7.4083706804511893
  2.6217875848587160  1.5136897981500315 10.3717189289248850
  7.8653628070119694  1.5136897981500315 10.3717189289248850
 -0.0000000262179096  6.0547591471893787 10.3717189289248850
  5.2435751959353434  6.0547591471893787 10.3717189289248850
 10.4871504180885964  0.0000000151369068 13.3350671773985745
  5.2435751959353443  0.0000000151369068 13.3350671773985745
  7.8653628070119694  4.5410693641762556 13.3350671773985745
  2.6217875848587173  4.5410693641762556 13.3350671773985745
 -0.0000000262179099  3.0273795811631561 16.2984154258722675
  5.2435751959353434  3.0273795811631561 16.2984154258722675
 -2.6217876372945357  7.5684489302025044 16.2984154258722675
  2.6217875848587164  7.5684489302025044 16.2984154258722675
  2.6217875848587164  1.5136897981500310  1.4816741835038014
  7.8653628070119694  1.5136897981500310  1.4816741835038014
 -0.0000000262179094  6.0547591471893787  1.4816741835038014
  5.2435751959353434  6.0547591471893787  1.4816741835038014
 10.4871504180885964  0.0000000151369068  4.4450224319774954
  5.2435751959353443  0.0000000151369068  4.4450224319774954
  7.8653628070119694  4.5410693641762547  4.4450224319774954
  2.6217875848587178  4.5410693641762547  4.4450224319774954
  0.6512123474128487  4.1553124988091366  7.4083706804511893
  5.8947875695661018  4.1553124988091366  7.4083706804511893
 -1.9705752636637783  8.6963818478484871  7.4083706804511893
  3.2729999584894740  8.6963818478484871  7.4083706804511893
 -1.3024247734794261  3.0273795811631570  7.4083706804511893
  3.9411504486738278  3.0273795811631570  7.4083706804511893
 -3.9242123845560521  7.5684489302025044  7.4083706804511893
  1.3193628375972002  7.5684489302025044  7.4083706804511893
  1.9705752112279593  2.6416227157960228 10.3717189289248850
  7.2141504333812128  2.6416227157960228 10.3717189289248850
 -0.6512123998486670  7.1826920648353694 10.3717189289248850
  4.5923628223045867  7.1826920648353694 10.3717189289248850
  1.9705752112279595  0.3857568805040249 10.3717189289248850
  7.2141504333812119  0.3857568805040249 10.3717189289248850
 -0.6512123998486676  4.9268262295433738 10.3717189289248850
  4.5923628223045849  4.9268262295433738 10.3717189289248850
  3.9242123321202307  1.5136897981500312 10.3717189289248850
  9.1677875542734846  1.5136897981500312 10.3717189289248850
  1.3024247210436051  6.0547591471893787 10.3717189289248850
  6.5459999431968585  6.0547591471893787 10.3717189289248850
  0.6512123474128486  1.8994466635171470  7.4083706804511893
  5.8947875695661027  1.8994466635171470  7.4083706804511893
 -1.9705752636637779  6.4405160125564942  7.4083706804511893
  3.2729999584894749  6.4405160125564942  7.4083706804511893
  0.6512123474128487  1.1279329327829066 13.3350671773985745
  5.8947875695661018  1.1279329327829066 13.3350671773985745
 -1.9705752636637783  5.6690022818222570 13.3350671773985745
  3.2729999584894736  5.6690022818222570 13.3350671773985745
  3.9411504486738278  0.0000000151369073 13.3350671773985745
  9.1847256708270830  0.0000000151369073 13.3350671773985745
  1.3193628375972013  4.5410693641762565 13.3350671773985745
  6.5629380597504561  4.5410693641762565 13.3350671773985745
 -0.6512123998486675  4.1553124988091383 16.2984154258722675
  4.5923628223045867  4.1553124988091383 16.2984154258722675
 -3.2730000109252946  8.6963818478484853 16.2984154258722675
  1.9705752112279591  8.6963818478484853 16.2984154258722675
 -0.6512123998486676  1.8994466635171470 16.2984154258722675
  4.5923628223045849  1.8994466635171470 16.2984154258722675
 -3.2730000109252941  6.4405160125564951 16.2984154258722675
  1.9705752112279578  6.4405160125564951 16.2984154258722675
  1.3024247210436060  3.0273795811631556 16.2984154258722675
  6.5459999431968594  3.0273795811631556 16.2984154258722675
 -1.3193628900330203  7.5684489302025044 16.2984154258722675
  3.9242123321202325  7.5684489302025044 16.2984154258722675
  8.5165751806427288  3.4131364465302725 13.3350671773985745
  3.2729999584894744  3.4131364465302725 13.3350671773985745
  5.8947875695661036  7.9542057955696217 13.3350671773985745
  0.6512123474128474  7.9542057955696217 13.3350671773985745
  3.2729999584894758  2.6416227157960224  1.4816741835038014
  8.5165751806427288  2.6416227157960224  1.4816741835038014
  0.6512123474128497  7.1826920648353694  1.4816741835038014
  5.8947875695661018  7.1826920648353694  1.4816741835038014
  1.3193628375972006  1.5136897981500319  1.4816741835038014
  6.5629380597504534  1.5136897981500319  1.4816741835038014
 -1.3024247734794259  6.0547591471893796  1.4816741835038014
  3.9411504486738265  6.0547591471893796  1.4816741835038014
  9.8359380444578388  1.1279329327829077  4.4450224319774954
  4.5923628223045858  1.1279329327829077  4.4450224319774954
  7.2141504333812128  5.6690022818222561  4.4450224319774954
  1.9705752112279589  5.6690022818222561  4.4450224319774954
  1.9705752112279589  3.4131364465302725  4.4450224319774954
  7.2141504333812136  3.4131364465302725  4.4450224319774954
 -0.6512123998486670  7.9542057955696199  4.4450224319774954
  4.5923628223045867  7.9542057955696199  4.4450224319774954
  1.3024247210436066  0.0000000151369066  4.4450224319774954
  6.5459999431968594  0.0000000151369066  4.4450224319774954
 -1.3193628900330197  4.5410693641762538  4.4450224319774954
  3.9242123321202333  4.5410693641762538  4.4450224319774954
  3.2729999584894762  0.3857568805040251  1.4816741835038014
  8.5165751806427270  0.3857568805040251  1.4816741835038014
  0.6512123474128495  4.9268262295433738  1.4816741835038014
  5.8947875695661027  4.9268262295433738  1.4816741835038014
 10.4871504180885964  0.0000000151369068  8.8900448046880349
  5.2435751959353443  0.0000000151369068  8.8900448046880349
  7.8653628070119703  4.5410693641762538  8.8900448046880349
  2.6217875848587182  4.5410693641762538  8.8900448046880349
  2.6217875848587164  1.5136897981500312  5.9266965562143410
  7.8653628070119694  1.5136897981500312  5.9266965562143410
 -0.0000000262179095  6.0547591471893787  5.9266965562143410
  5.2435751959353434  6.0547591471893787  5.9266965562143410
  2.6217875848587164  1.5136897981500312 14.8167413016354246
  7.8653628070119694  1.5136897981500312 14.8167413016354246
 -0.0000000262179102  6.0547591471893805 14.8167413016354246
  5.2435751959353425  6.0547591471893805 14.8167413016354246
 -0.0000000262179091  3.0273795811631561 11.8533930531617280
  5.2435751959353434  3.0273795811631561 11.8533930531617280
 -2.6217876372945370  7.5684489302025044 11.8533930531617280
  2.6217875848587160  7.5684489302025044 11.8533930531617280
 -0.0000000262179092  3.0273795811631561  2.9633483077406488
  5.2435751959353434  3.0273795811631561  2.9633483077406488
 -2.6217876372945361  7.5684489302025044  2.9633483077406488
  2.6217875848587164  7.5684489302025044  2.9633483077406488
 10.4871504180885964  0.0000000151369071  0.0000000592669549
  5.2435751959353443  0.0000000151369071  0.0000000592669549
  7.8653628070119694  4.5410693641762547  0.0000000592669549
  2.6217875848587178  4.5410693641762547  0.0000000592669549
