30
Lattice="4.99959539 0.0 0.0 -2.4997977 4.32977662 0.0 0.0 0.0 16.81153888" Properties=species:S:1:pos:R:3 init_sgn=167 task="unitcell optimization" ratio=#N/A sgn=#N/A opt=pre opt_conv=#N/A opt_steps=#N/A force_conv=T e_fr_energy=-281.9527893066406 e_0_energy=-281.9527893066406 force="_JSON [[7.422204362228513e-07, 5.265173967927694e-07, 1.3058888725936413e-07], [-9.759096428751945e-07, -2.657179720699787e-07, -1.935136282327221e-07], [-6.192276487126946e-07, -2.9746843210887164e-07, 2.1245796233415604e-09], [1.2898817658424377e-06, -7.940689101815224e-07, 1.9253639038652182e-07], [-3.620838242568425e-07, -7.311671197385294e-07, -2.5477010012764367e-07], [-9.03582645150891e-07, 3.2611393407933065e-07, 2.3283064365386963e-10], [-0.1612505465745926, -0.27929365634918213, -3.049790393561125e-07], [0.3224996328353882, 1.9406434148550034e-07, -4.3501495383679867e-07], [0.1612505316734314, -0.2792935371398926, 5.958690962870605e-07], [0.16125063598155975, 0.2792937159538269, 6.625955393246841e-07], [-0.3225005269050598, -8.370261639356613e-08, 5.873230293218512e-07], [-0.16125017404556274, 0.27929288148880005, -5.298643372952938e-07], [-0.16125020384788513, -0.2792937755584717, 2.1420419216156006e-08], [0.32250136137008667, 1.7716956790536642e-07, 8.482317070956924e-09], [0.16124986112117767, -0.2792932689189911, -5.142639452060394e-07], [0.1612498015165329, 0.2792927622795105, -7.75093212723732e-07], [-0.32250088453292847, 6.609479896724224e-08, -6.152913556434214e-07], [-0.16125044226646423, 0.27929380536079407, -2.9802322387695312e-08], [-0.16124951839447021, -0.2792937159538269, 5.194160621613264e-07], [0.32250094413757324, -2.7264468371868134e-07, 5.787296686321497e-07], [0.16125032305717468, -0.2792932093143463, 6.865593604743481e-08], [0.16124998033046722, 0.27929437160491943, 3.990135155618191e-08], [-0.322500616312027, 3.363675205036998e-08, 1.1408701539039612e-08], [-0.16124996542930603, 0.2792937457561493, 4.206835342301929e-07], [-1.7695128917694092e-07, -1.1682277545332909e-07, -1.338533621719762e-07], [-4.490773903853551e-07, -1.1175870895385742e-08, 8.67992639541626e-07], [-1.271401970370789e-07, 1.3965340883714816e-07, 1.882202923297882e-06], [2.8128852136433125e-07, 1.2584496289491653e-07, -1.8561258912086487e-06], [-1.792795956134796e-08, -3.259629011154175e-09, -8.731149137020111e-07], [4.400089892442338e-08, -9.243376553058624e-08, -1.4716472662712476e-07]]" position="_JSON [[-2.833131029540474e-08, 2.886517761099255, 7.0048079227051305], [2.4997977183313105, 1.4432588589007445, 9.80673095729487], [0.0, 0.0, 12.60865416], [-2.833131029540474e-08, 2.886517761099255, 15.41057736270513], [2.4997977183313105, 1.4432588589007445, 1.4009615172948704], [0.0, 0.0, 4.20288472], [0.6471942688787616, 4.007491082818818, 7.0048079227051305], [-1.2943885253485337, 2.886517761099255, 7.0048079227051305], [1.8526034435302285, 2.5642322239180735, 9.80673095729487], [1.8526034211212377, 0.3222855371811816, 9.80673095729487], [3.7941862153485335, 1.4432588589007445, 9.80673095729487], [0.6471942464697716, 1.7655443960819261, 7.0048079227051305], [0.6471942722120954, 1.120973365017329, 12.60865416], [3.705206842986822, 0.0, 12.60865416], [-0.6471942781344152, 4.007491082818818, 15.41057736270513], [-0.6471942505474517, 1.7655443960819261, 15.41057736270513], [1.2943885186818667, 2.886517761099255, 15.41057736270513], [-1.8526034251989176, 3.20880325498267, 12.60865416], [3.146991940547452, 2.5642322239180735, 1.4009615172948704], [1.2054091713181327, 1.4432588589007445, 1.4009615172948704], [-0.6471942748010819, 1.120973365017329, 4.20288472], [1.8526034177879045, 3.20880325498267, 4.20288472], [1.2943885470131773, 0.0, 4.20288472], [3.146991968134415, 0.3222855371811816, 1.4009615172948704], [0.0, 0.0, 8.40576944], [2.4997977183313105, 1.4432588589007445, 5.60384623729487], [2.4997977183313105, 1.4432588589007445, 14.009615677294871], [-2.833131029540474e-08, 2.886517761099255, 11.20769264270513], [-2.833131029540474e-08, 2.886517761099255, 2.8019232027051295], [0.0, 0.0, 0.0]]" formula=CCaO3 symbol="_JSON [\"C\", \"C\", \"C\", \"C\", \"C\", \"C\", \"O\", \"O\", \"O\", \"O\", \"O\", \"O\", \"O\", \"O\", \"O\", \"O\", \"O\", \"O\", \"O\", \"O\", \"O\", \"O\", \"O\", \"O\", \"Ca\", \"Ca\", \"Ca\", \"Ca\", \"Ca\", \"Ca\"]" stress="0.0002079431724268943 1.1464901250590742e-09 3.93082322247551e-09 1.1464901250590742e-09 0.0002079628175124526 2.743387073067538e-09 3.93082322247551e-09 2.743387073067538e-09 -0.008673092350363731" stress_voigt="0.0002079431724268943 0.0002079628175124526 -0.008673092350363731 2.743387073067538e-09 3.93082322247551e-09 1.1464901250590742e-09" volume=363.9215882981706 a=4.99959539 b=4.999595395631921 c=16.81153888 alpha=90.0 beta=90.0 gamma=120.00000002890131 pbc="T T T"
C       -0.00000003       2.88651776       7.00480792
C        2.49979772       1.44325886       9.80673096
C        0.00000000       0.00000000      12.60865416
C       -0.00000003       2.88651776      15.41057736
C        2.49979772       1.44325886       1.40096152
C        0.00000000       0.00000000       4.20288472
O        0.64719427       4.00749108       7.00480792
O       -1.29438853       2.88651776       7.00480792
O        1.85260344       2.56423222       9.80673096
O        1.85260342       0.32228554       9.80673096
O        3.79418622       1.44325886       9.80673096
O        0.64719425       1.76554440       7.00480792
O        0.64719427       1.12097337      12.60865416
O        3.70520684       0.00000000      12.60865416
O       -0.64719428       4.00749108      15.41057736
O       -0.64719425       1.76554440      15.41057736
O        1.29438852       2.88651776      15.41057736
O       -1.85260343       3.20880325      12.60865416
O        3.14699194       2.56423222       1.40096152
O        1.20540917       1.44325886       1.40096152
O       -0.64719427       1.12097337       4.20288472
O        1.85260342       3.20880325       4.20288472
O        1.29438855       0.00000000       4.20288472
O        3.14699197       0.32228554       1.40096152
Ca       0.00000000       0.00000000       8.40576944
Ca       2.49979772       1.44325886       5.60384624
Ca       2.49979772       1.44325886      14.00961568
Ca      -0.00000003       2.88651776      11.20769264
Ca      -0.00000003       2.88651776       2.80192320
Ca       0.00000000       0.00000000       0.00000000
30
Lattice="5.015900657707137 -5.4077507017676364e-18 1.3952667653792067e-17 -2.5079503288535676 4.343897392433453 2.6785927047573757e-17 4.6693017414361666e-17 1.4671012357435764e-15 16.979470900959264" Properties=species:S:1:pos:R:3 init_sgn=167 task="unitcell optimization" ratio=#N/A sgn=167 opt=post opt_conv=T opt_steps=0 force_conv=T e_fr_energy=-281.9898681640625 e_0_energy=-281.9898681640625 force="_JSON [[-5.900879626178732e-23, -2.55515565520723e-23, -6.242261865040203e-24], [-2.950439813089366e-23, 9.25123233162601e-40, 1.0338746337232353e-23], [-1.475219906544683e-23, -2.55515565520723e-23, -1.1704240503912315e-24], [-1.475219906544683e-23, 2.855846270293977e-40, 3.1211309325201015e-24], [-1.475219906544683e-23, -2.55515565520723e-23, -5.852120251956157e-25], [1.287513029021642e-41, 4.045198341889666e-40, 4.681696201564926e-24], [-4.456740327896114e-07, -7.719301038378035e-07, -1.0165491972062283e-23], [8.913480655792227e-07, -9.60981578662666e-25, 5.287449178656365e-25], [4.456740327896114e-07, -7.719301038378035e-07, -9.831817219789183e-24], [4.456740327896114e-07, 7.719301038378035e-07, 1.8943672645819358e-23], [-8.913480655792227e-07, 9.60981578662666e-25, -9.453228671877326e-24], [-4.456740327896114e-07, 7.719301038378035e-07, 1.574489689541152e-23], [-4.456740327896114e-07, -7.719301038378035e-07, -3.533088296722808e-24], [8.913480655792227e-07, -9.60981578662666e-25, 1.6991691161682877e-24], [4.456740327896114e-07, -7.719301038378035e-07, -1.1002241467395641e-23], [4.456740327896114e-07, 7.719301038378035e-07, 2.557734954265986e-24], [-8.913480655792227e-07, 2.5579538631671848e-24, -7.161148346686078e-24], [-4.456740327896114e-07, 7.719301038378035e-07, 4.684246194441053e-25], [-4.456740327896114e-07, -7.719301038378035e-07, -7.239431747476591e-24], [8.913480655792227e-07, -4.1549260490640905e-24, 1.0282278884775727e-23], [4.456740327896114e-07, -7.719301038378035e-07, -7.881110929305992e-24], [4.456740327896114e-07, 7.719301038378035e-07, 1.036056228556624e-23], [-8.913480655792227e-07, 4.1549260490640905e-24, -7.161148346686078e-24], [-4.456740327896114e-07, 7.719301038378035e-07, 8.661392972182726e-24], [-1.844024883180854e-24, 1.1977291887264858e-24, -1.560565505703096e-23], [4.610062207952135e-25, -7.984861422522594e-25, 1.2484523730080406e-23], [-1.6135216988275373e-24, 3.992430711261297e-25, -9.363392403129852e-24], [-1.3830186130818338e-24, 2.3954583774529716e-24, 6.242261865040203e-24], [-1.3830186130818338e-24, 7.984861422522594e-25, -1.560565505703096e-23], [-1.3830186130818338e-24, 2.3954583774529716e-24, 6.242261865040203e-24]]" position="_JSON [[-2.5079536037199782e-08, 2.8959316094352916, 7.074779598664583], [2.5079503037740722, 1.4479658119574779, 9.904691415491172], [-2.5079502865798976e-08, 1.447965824556861e-08, 12.734603232317689], [-2.5079536013853384e-08, 2.8959316094352916, 15.564515049144198], [2.5079503037740722, 1.4479658119574779, 1.414955965011509], [-2.5079502889145447e-08, 1.4479658180324255e-08, 4.244867781838059], [0.6455365425482645, 4.014033742710184, 7.074779598664583], [-1.2910731603354697, 2.8959316094352916, 7.074779598664583], [1.8624137361460102, 2.5660679452326423, 9.904691415491172], [1.8624137361461557, 0.32986367868230965, 9.904691415491172], [3.799023439029866, 1.447965811957478, 9.904691415491172], [0.6455365425483378, 1.777829476160112, 7.074779598664583], [0.645536542548337, 1.1181021477548194, 12.734603232317689], [3.724827497371807, 1.447965824155278e-08, 12.734603232317689], [-0.6455365927075603, 4.0140337427101835, 15.564515049144198], [-0.6455365927074873, 1.7778294761601119, 15.564515049144198], [1.2910731101761725, 2.8959316094352916, 15.564515049144198], [-1.8624137863053005, 3.22579527363795, 12.734603232317689], [3.1534868714019657, 2.566067945232643, 1.414955965011509], [1.216877168518244, 1.4479658119574779, 1.414955965011509], [-0.6455365927074878, 1.1181021477548188, 4.244867781838059], [1.8624137361460107, 3.22579527363795, 4.244867781838059], [1.2910731101763175, 1.4479658401701079e-08, 4.244867781838059], [3.1534868714019666, 0.3298636786823101, 1.414955965011509], [-2.5079503323009722e-08, 1.4479657767408873e-08, 8.489735507077903], [2.5079503037740722, 1.447965811957478, 5.659823690251323], [2.507950303774072, 1.4479658119574776, 14.149559140730938], [-2.5079536025526543e-08, 2.8959316094352916, 11.319647323904423], [-2.5079536494410535e-08, 2.8959316094352916, 2.8299118734247815], [-2.5079502900818646e-08, 1.4479658370470878e-08, 5.659823705754087e-08]]" formula=CCaO3 symbol="_JSON [\"C\", \"C\", \"C\", \"C\", \"C\", \"C\", \"O\", \"O\", \"O\", \"O\", \"O\", \"O\", \"O\", \"O\", \"O\", \"O\", \"O\", \"O\", \"O\", \"O\", \"O\", \"O\", \"O\", \"O\", \"Ca\", \"Ca\", \"Ca\", \"Ca\", \"Ca\", \"Ca\"]" stress="8.506705029276418e-08 -3.4515368818602364e-23 -6.518524267264403e-23 -3.4515368818602364e-23 8.506705029276418e-08 -1.949929357154857e-22 -6.518524267264403e-23 -1.949929357154857e-22 -5.413357939687558e-07" stress_voigt="8.506705029276418e-08 8.506705029276418e-08 -5.413357939687558e-07 -1.949929357154857e-22 -6.518524267264403e-23 -3.4515368818602364e-23" volume=369.95818293044886 a=5.015900657707137 b=5.015900657707135 c=16.979470900959264 alpha=90.0 beta=90.0 gamma=120.00000000000001 pbc="T T T"
C       -0.00000003       2.89593161       7.07477960
C        2.50795030       1.44796581       9.90469142
C       -0.00000003       0.00000001      12.73460323
C       -0.00000003       2.89593161      15.56451505
C        2.50795030       1.44796581       1.41495597
C       -0.00000003       0.00000001       4.24486778
O        0.64553654       4.01403374       7.07477960
O       -1.29107316       2.89593161       7.07477960
O        1.86241374       2.56606795       9.90469142
O        1.86241374       0.32986368       9.90469142
O        3.79902344       1.44796581       9.90469142
O        0.64553654       1.77782948       7.07477960
O        0.64553654       1.11810215      12.73460323
O        3.72482750       0.00000001      12.73460323
O       -0.64553659       4.01403374      15.56451505
O       -0.64553659       1.77782948      15.56451505
O        1.29107311       2.89593161      15.56451505
O       -1.86241379       3.22579527      12.73460323
O        3.15348687       2.56606795       1.41495597
O        1.21687717       1.44796581       1.41495597
O       -0.64553659       1.11810215       4.24486778
O        1.86241374       3.22579527       4.24486778
O        1.29107311       0.00000001       4.24486778
O        3.15348687       0.32986368       1.41495597
Ca      -0.00000003       0.00000001       8.48973551
Ca       2.50795030       1.44796581       5.65982369
Ca       2.50795030       1.44796581      14.14955914
Ca      -0.00000003       2.89593161      11.31964732
Ca      -0.00000003       2.89593161       2.82991187
Ca      -0.00000003       0.00000001       0.00000006
