C  O  Ca
 1.0000000000000000
    10.5337978543187578    0.0000000000000000    0.0000000000000000
    -5.2668989271593789    9.1225365401700582    0.0000000000000000
     0.0000000000000010    0.0000000000000007   17.8760952772203652
 C   O   Ca 
  24  72  24
Cartesian
 -0.0000000263345427  3.0408455285942693  7.4483730917621331
  5.2668989008248346  3.0408455285942693  7.4483730917621331
 -2.6334494899142324  7.6021137986792979  7.4483730917621331
  2.6334494372451456  7.6021137986792979  7.4483730917621331
  2.6334494372451482  1.5204227718992596 10.4277223046321943
  7.9003483644045263  1.5204227718992596 10.4277223046321943
 -0.0000000263345418  6.0816910419842882 10.4277223046321943
  5.2668989008248364  6.0816910419842882 10.4277223046321943
 10.5337978279842108  0.0000000152042499 13.4070715175022546
  5.2668989008248364  0.0000000152042499 13.4070715175022546
  7.9003483644045245  4.5612682852892794 13.4070715175022546
  2.6334494372451469  4.5612682852892794 13.4070715175022546
 -0.0000000263345424  3.0408455285942693 16.3864207303723148
  5.2668989008248364  3.0408455285942693 16.3864207303723148
 -2.6334494899142311  7.6021137986792988 16.3864207303723148
  2.6334494372451469  7.6021137986792988 16.3864207303723148
  2.6334494372451469  1.5204227718992600  1.4896746660220117
  7.9003483644045245  1.5204227718992600  1.4896746660220117
 -0.0000000263345423  6.0816910419842882  1.4896746660220117
  5.2668989008248355  6.0816910419842882  1.4896746660220117
 10.5337978279842126  0.0000000152042499  4.4690238788920729
  5.2668989008248364  0.0000000152042499  4.4690238788920729
  7.9003483644045254  4.5612682852892794  4.4690238788920729
  2.6334494372451469  4.5612682852892794  4.4690238788920729
  0.6609429401840170  4.1683118194340185  7.4483730917621331
  5.9178418673433937  4.1683118194340185  7.4483730917621331
 -1.9825065233956731  8.7295800895190485  7.4483730917621331
  3.2843924037637056  8.7295800895190485  7.4483730917621331
 -1.3018859593716601  3.0408455285942693  7.4483730917621331
  3.9650129677877186  3.0408455285942693  7.4483730917621331
 -3.9353354229513497  7.6021137986792979  7.4483730917621331
  1.3315635042080292  7.6021137986792979  7.4483730917621331
  1.9825064707265914  2.6478890627390173 10.4277223046321943
  7.2494053978859707  2.6478890627390173 10.4277223046321943
 -0.6509429928530986  7.2091573328240468 10.4277223046321943
  4.6159559343062808  7.2091573328240468 10.4277223046321943
  1.9825064707265909  0.3929564810595084 10.4277223046321943
  7.2494053978859716  0.3929564810595084 10.4277223046321943
 -0.6509429928530983  4.9542247511445376 10.4277223046321943
  4.6159559343062808  4.9542247511445376 10.4277223046321943
  3.9353353702822731  1.5204227718992593 10.4277223046321943
  9.2022342974416507  1.5204227718992593 10.4277223046321943
  1.3018859067025836  6.0816910419842882 10.4277223046321943
  6.5687848338619634  6.0816910419842882 10.4277223046321943
  0.6509429401840162  1.9133792377545220  7.4483730917621331
  5.9178418673433937  1.9133792377545220  7.4483730917621331
 -1.9825065233956729  6.4746475078395509  7.4483730917621331
  3.2843924037637060  6.4746475078395509  7.4483730917621331
  0.6509429401840168  1.1274663060440004 13.4070715175022546
  5.9178418673433955  1.1274663060440004 13.4070715175022546
 -1.9825065233956727  5.6887345761290300 13.4070715175022546
  3.2843924037637069  5.6887345761290300 13.4070715175022546
  3.9650129677877262  0.0000000152042499 13.4070715175022546
  9.2319118949471015  0.0000000152042499 13.4070715175022546
  1.3315635042080365  4.5612682852892794 13.4070715175022546
  6.5984624313674152  4.5612682852892794 13.4070715175022546
 -0.6509429928531011  4.1683118194340194 16.3864207303723148
  4.6159559343062773  4.1683118194340194 16.3864207303723148
 -3.2843924564327907  8.7295800895190485 16.3864207303723148
  1.9825064707265876  8.7295800895190485 16.3864207303723148
 -0.6509429928531016  1.9133792377545220 16.3864207303723148
  4.6159559343062782  1.9133792377545220 16.3864207303723148
 -3.2843924564327911  6.4746475078395518 16.3864207303723148
  1.9825064707265883  6.4746475078395518 16.3864207303723148
  1.3018859067025748  3.0408455285942693 16.3864207303723148
  6.5687848338619528  3.0408455285942693 16.3864207303723148
 -1.3315635568771143  7.6021137986792988 16.3864207303723148
  3.9353353702822633  7.6021137986792988 16.3864207303723148
  8.5512913309230765  3.4338019944495288 13.4070715175022546
  3.2843924037637025  3.4338019944495288 13.4070715175022546
  5.9178418673433901  7.9950702645345579 13.4070715175022546
  0.6509429401840131  7.9950702645345579 13.4070715175022546
  3.2843924037637051  2.6478890627390173  1.4896746660220117
  8.5512913309230836  2.6478890627390173  1.4896746660220117
  0.6509429401840164  7.2091573328240468  1.4896746660220117
  5.9178418673433946  7.2091573328240468  1.4896746660220117
  1.3315635042080296  1.5204227718992600  1.4896746660220117
  6.5984624313674081  1.5204227718992600  1.4896746660220117
 -1.3018859593716596  6.0816910419842882  1.4896746660220117
  3.9650129677877191  6.0816910419842882  1.4896746660220117
  9.8828548614656562  1.1274663060440011  4.4690238788920729
  4.6159559343062773  1.1274663060440011  4.4690238788920729
  7.2494053978859689  5.6887345761290291  4.4690238788920729
  1.9825064707265871  5.6887345761290291  4.4690238788920729
  1.9825064707265909  3.4338019944495297  4.4690238788920729
  7.2494053978859707  3.4338019944495297  4.4690238788920729
 -0.6509429928530982  7.9950702645345579  4.4690238788920729
  4.6159559343062817  7.9950702645345579  4.4690238788920729
  1.3018859067025748  0.0000000152042496  4.4690238788920729
  6.5687848338619537  0.0000000152042496  4.4690238788920729
 -1.3315635568771149  4.5612682852892794  4.4690238788920729
  3.9353353702822651  4.5612682852892794  4.4690238788920729
  3.2843924037637056  0.3929564810595089  1.4896746660220117
  8.5512913309230836  0.3929564810595089  1.4896746660220117
  0.6509429401840154  4.9542247511445376  1.4896746660220117
  5.9178418673433946  4.9542247511445376  1.4896746660220117
 10.5337978279842144  0.0000000152042494  8.9380476981971633
  5.2668989008248364  0.0000000152042494  8.9380476981971633
  7.9003483644045245  4.5612682852892794  8.9380476981971633
  2.6334494372451460  4.5612682852892794  8.9380476981971633
  2.6334494372451474  1.5204227718992602  5.9586984853271030
  7.9003483644045245  1.5204227718992602  5.9586984853271030
 -0.0000000263345420  6.0816910419842882  5.9586984853271030
  5.2668989008248355  6.0816910419842882  5.9586984853271030
  2.6334494372451469  1.5204227718992598 14.8967461239372838
  7.9003483644045263  1.5204227718992598 14.8967461239372838
 -0.0000000263345428  6.0816910419842891 14.8967461239372838
  5.2668989008248364  6.0816910419842891 14.8967461239372838
 -0.0000000263345424  3.0408455285942693 11.9173969110672253
  5.2668989008248364  3.0408455285942693 11.9173969110672253
 -2.6334494899142311  7.6021137986792997 11.9173969110672253
  2.6334494372451465  7.6021137986792997 11.9173969110672253
 -0.0000000263345435  3.0408455285942693  2.9793492724570418
  5.2668989008248355  3.0408455285942693  2.9793492724570418
 -2.6334494899142333  7.6021137986792988  2.9793492724570418
  2.6334494372451456  7.6021137986792988  2.9793492724570418
 10.5337978279842144  0.0000000152042501  0.0000000595869816
  5.2668989008248364  0.0000000152042501  0.0000000595869816
  7.9003483644045254  4.5612682852892794  0.0000000595869816
  2.6334494372451474  4.5612682852892794  0.0000000595869816
