C  O  Ca
 1.0000000000000000
     5.2666956905924929    0.0000000000000000    0.0000000000000000
    -2.6333478452962460    4.5610922620551264   -0.0000000000000000
     0.0000000000000009    0.0000000000000007   17.8284444460072287
 C   O   Ca 
   6  18   6
Selective dynamics
Cartesian
 -0.0000000263335063  3.0407281899070568  7.4285185785978127   T   T   T
  2.6333478189627337  1.5203641025553480 10.3999259862656839   T   T   T
 -0.0000000263335127  0.0000000152036392 13.3713333939335541   T   T   T
 -0.0000000263335063  3.0407281899070568 16.3427408016014262   T   T   T
  2.6333478189627337  1.5203641025553480  1.4857037632620713   T   T   T
 -0.0000000263335127  0.0000000152036392  4.4571111709299425   T   T   T
  0.6508715468298562  4.1680708238282795  7.4285185785978127   T   T   T
 -1.3017431726602364  3.0407281899070564  7.4285185785978127   T   T   T
  1.9824762457993719  2.6477067364765747 10.3999259862656839   T   T   T
  1.9824762457993725  0.3930214686341217 10.3999259862656839   T   T   T
  3.9350909652894570  1.5203641025553483 10.3999259862656839   T   T   T
  0.6508715468298566  1.9133855559858322  7.4285185785978127   T   T   T
  0.6508715468298492  1.1273426491248648 13.3713333939335541   T   T   T
  3.9649525179322573  0.0000000152036388 13.3713333939335541   T   T   T
 -0.6508715994968680  4.1680708238282786 16.3427408016014262   T   T   T
 -0.6508715994968673  1.9133855559858313 16.3427408016014262   T   T   T
  1.3017431199932115  3.0407281899070568 16.3427408016014262   T   T   T
 -1.9824762984663833  3.4337496433375390 13.3713333939335541   T   T   T
  3.2842193921260954  2.6477067364765756  1.4857037632620713   T   T   T
  1.3316046726360100  1.5203641025553476  1.4857037632620713   T   T   T
 -0.6508715994968750  1.1273426491248639  4.4571111709299425   T   T   T
  1.9824762457993865  3.4337496433375381  4.4571111709299425   T   T   T
  1.3017431199932115  0.0000000152036395  4.4571111709299425   T   T   T
  3.2842193921260958  0.3930214686341224  1.4857037632620713   T   T   T
 -0.0000000263335127  0.0000000152036392  8.9142222824317479   T   T   T
  2.6333478189627337  1.5203641025553483  5.9428148747638776   T   T   T
  2.6333478189627337  1.5203641025553480 14.8570370977674884   T   T   T
 -0.0000000263335063  3.0407281899070568 11.8856296900996199   T   T   T
 -0.0000000263335063  3.0407281899070568  2.9714074670960064   T   T   T
 -0.0000000263335127  0.0000000152036395  0.0000000594281362   T   T   T
