C  O  Ca
 1.0000000000000000
     5.1436975988741436    0.0000000000000000   -0.0000000000000000
    -2.5718487994370713    4.4545727900100260   -0.0000000000000000
    -0.0000000000000009    0.0000000000000001   17.4414211195880213
 C   O   Ca 
   6  18   6
Selective dynamics
Cartesian
 -0.0000000257185167  2.9697152081886018  7.2672588579664028   T   T   T
  2.5718487737185511  1.4848576115185930 10.1741623778977406   T   T   T
 -0.0000000257185202  0.0000000148485841 13.0810658978290775   T   T   T
 -0.0000000257185167  2.9697152081886018 15.9879694177604144   T   T   T
  2.5718487737185511  1.4848576115185930  1.4534518181037290   T   T   T
 -0.0000000257185202  0.0000000148485841  4.3603553380350668   T   T   T
  0.6493890565523832  4.0944900925623280  7.2672588579664028   T   T   T
 -1.2987781902603202  2.9697152081886022  7.2672588579664028   T   T   T
  1.9224596914476579  2.6096324958923174 10.1741623778977406   T   T   T
  1.9224596914476582  0.3600827271448685 10.1741623778977406   T   T   T
  3.8706269382603602  1.4848576115185927 10.1741623778977406   T   T   T
  0.6493890565523858  1.8449403238148852  7.2672588579664028   T   T   T
  0.6493890565523801  1.1247748992223063 13.0810658978290775   T   T   T
  3.8449194086138365  0.0000000148485846 13.0810658978290775   T   T   T
 -0.6493891079894174  4.0944900925623280 15.9879694177604144   T   T   T
 -0.6493891079894142  1.8449403238148845 15.9879694177604144   T   T   T
  1.2987781388232791  2.9697152081886014 15.9879694177604144   T   T   T
 -1.9224597428846866  3.3297979204849102 13.0810658978290775   T   T   T
  3.2212378559894779  2.6096324958923169  1.4534518181037290   T   T   T
  1.2730706091767512  1.4848576115185934  1.4534518181037290   T   T   T
 -0.6493891079894205  1.1247748992223068  4.3603553380350668   T   T   T
  1.9224596914476704  3.3297979204849093  4.3603553380350668   T   T   T
  1.2987781388232791  0.0000000148485839  4.3603553380350668   T   T   T
  3.2212378559894774  0.3600827271448692  1.4534518181037290   T   T   T
 -0.0000000257185202  0.0000000148485846  8.7207106179320704   T   T   T
  2.5718487737185511  1.4848576115185932  5.8138070980007344   T   T   T
  2.5718487737185511  1.4848576115185934 14.5345176577947441   T   T   T
 -0.0000000257185167  2.9697152081886022 11.6276141378634073   T   T   T
 -0.0000000257185167  2.9697152081886022  2.9069035780693966   T   T   T
 -0.0000000257185202  0.0000000148485844  0.0000000581380606   T   T   T
